!Elem type set prior to running inputs
!Elem Type1=186
!keyo,1,2,1          ! set full integration on SOLID186
!#Nodes = 6216
!#Elements = 1218
!#Types = 1
!Z=0 is at mating face. Part is in Positive Z

nblock,3,,6837
(1i9,3e20.9e3)
        1     3.629003282E+00     1.424278832E+00     3.460985712E+00
        2     3.332682733E+00     1.307981587E+00     3.369687821E+00
        3     3.717151891E+00     1.458874612E+00     2.905781343E+00
        4     3.740001301E+00     1.467842344E+00     2.251285397E+00
        5     3.761249275E+00     1.476181560E+00     1.514683238E+00
        6     3.269880745E+00     1.283333622E+00     3.699611753E+00
        7     2.897732364E+00     1.137276146E+00     3.599283772E+00
        8     3.104855429E+00     1.218565959E+00     2.966043030E+00
        9     3.120965788E+00     1.224888809E+00     2.196424822E+00
       10     3.136564082E+00     1.231010689E+00     1.457912488E+00
       11     3.137695043E+00     1.231454558E+00     7.215264332E-01
       12     3.765047981E+00     1.477672443E+00     7.671867698E-01
       13     4.382609281E+00     1.720047392E+00     8.062335744E-01
       14     4.383653615E+00     1.720457263E+00     1.590559449E+00
       15     4.356136620E+00     1.709657638E+00     2.404171656E+00
       16     4.295097520E+00     1.685701556E+00     3.356385211E+00
       17     3.864060598E+00     1.516532030E+00     3.904223112E+00
       18     3.400062584E+00     1.334426229E+00     4.214603503E+00
       19     2.972840051E+00     1.166753740E+00     4.282395184E+00
       20     2.513218698E+00     9.863656536E-01    -5.421010862E-17
       21     2.513218698E+00     9.863656534E-01     7.142857143E-01
       22     3.134335167E+00     1.230135904E+00    -1.084202172E-16
       23     2.513218698E+00     9.863656521E-01     5.000000000E+00
       24     3.101775417E+00     1.217357142E+00     5.000000000E+00
       25     2.513218698E+00     9.863656523E-01     4.285714286E+00
       26     3.576209945E+00     1.403558973E+00     4.772665636E+00
       27     2.513218698E+00     9.863656525E-01     3.571428571E+00
       28     4.999509751E+00     1.962162984E+00     4.090653444E+00
       29     4.525079001E+00     1.775962636E+00     4.317996907E+00
       30     4.050644473E+00     1.589760805E+00     4.545331271E+00
       31     4.999885842E+00     1.962310589E+00     3.272522755E+00
       32     2.513218698E+00     9.863656528E-01     2.857142857E+00
       33     4.999837119E+00     1.962291467E+00     2.454392066E+00
       34     2.513218698E+00     9.863656530E-01     2.142857143E+00
       35     2.513218698E+00     9.863656532E-01     1.428571429E+00
       36     4.997684576E+00     1.961446657E+00     1.981704731E-12
       37     4.999788396E+00     1.962272345E+00     1.636261378E+00
       38     4.999739674E+00     1.962253223E+00     8.181306888E-01
       39     3.755451637E+00     1.473906155E+00    -1.084202172E-16
       40     4.376568107E+00     1.717676406E+00    -1.084202172E-16
       41     3.702801421E+00     8.451402594E-01     3.499975686E+00
       42     3.419822709E+00     7.805522151E-01     3.398351057E+00
       43     3.778564807E+00     8.624327581E-01     2.943639011E+00
       44     3.800339304E+00     8.674026454E-01     2.282101804E+00
       45     3.820604144E+00     8.720279632E-01     1.536139720E+00
       46     3.366466004E+00     7.683738952E-01     3.726222683E+00
       47     3.005312136E+00     6.859428815E-01     3.612806673E+00
       48     3.195718342E+00     7.294018559E-01     2.986631875E+00
       49     3.210874211E+00     7.328610847E-01     2.211687343E+00
       50     3.225751499E+00     7.362567288E-01     1.468436436E+00
       51     3.227270326E+00     7.366033916E-01     7.216830476E-01
       52     3.824670126E+00     8.729559976E-01     7.781624910E-01
       53     4.412739320E+00     1.007178954E+00     8.275486521E-01
       54     4.413276730E+00     1.007301613E+00     1.623099683E+00
       55     4.387038837E+00     1.001312985E+00     2.452262990E+00
       56     4.332832719E+00     9.889407919E-01     3.418463400E+00
       57     3.934542553E+00     8.980336603E-01     3.951554528E+00
       58     3.496289725E+00     7.980053120E-01     4.244197009E+00
       59     3.087981813E+00     7.048116954E-01     4.294084598E+00
       60     2.632158294E+00     6.007729541E-01    -5.421010862E-17
       61     2.632158294E+00     6.007729537E-01     7.142857143E-01
       62     3.224075066E+00     7.358740947E-01    -1.084202172E-16
       63     2.632158294E+00     6.007729515E-01     5.000000000E+00
       64     3.248568815E+00     7.414646305E-01     5.000000000E+00
       65     2.632158294E+00     6.007729519E-01     4.285714286E+00
       66     3.686366083E+00     8.413890001E-01     4.799700379E+00
       67     2.632158294E+00     6.007729523E-01     3.571428571E+00
       68     4.999757880E+00     1.141162107E+00     4.198801503E+00
       69     4.561960619E+00     1.041237739E+00     4.399101138E+00
       70     4.124163351E+00     9.413133697E-01     4.599400759E+00
       71     4.999988680E+00     1.141214786E+00     3.359041202E+00
       72     2.632158294E+00     6.007729526E-01     2.857142857E+00
       73     4.999989348E+00     1.141214939E+00     2.519280902E+00
       74     2.632158294E+00     6.007729530E-01     2.142857143E+00
       75     2.632158294E+00     6.007729534E-01     1.428571429E+00
       76     4.999825381E+00     1.141177516E+00     4.118884053E-13
       77     4.999990017E+00     1.141215092E+00     1.679520601E+00
       78     4.999990685E+00     1.141215245E+00     8.397603005E-01
       79     3.815991837E+00     8.709752352E-01    -5.421010862E-17
       80     4.407908609E+00     1.006076376E+00    -1.084202172E-16
       81     3.740109912E+00     2.802824882E-01     3.518374410E+00
       82     3.463881264E+00     2.595820129E-01     3.411876877E+00
       83     3.809593388E+00     2.854895552E-01     2.961502754E+00
       84     3.830814696E+00     2.870798728E-01     2.296643016E+00
       85     3.850565114E+00     2.885599625E-01     1.546264303E+00
       86     3.415310339E+00     2.559421250E-01     3.738780630E+00
       87     3.059712759E+00     2.292937704E-01     3.619188257E+00
       88     3.241653431E+00     2.429283393E-01     2.996347065E+00
       89     3.256319160E+00     2.440273842E-01     2.218889207E+00
       90     3.270819110E+00     2.451140057E-01     1.473402328E+00
       91     3.272319275E+00     2.452264280E-01     7.217569485E-01
       92     3.854548055E+00     2.888584432E-01     7.833415596E-01
       93     4.427682826E+00     3.318089566E-01     8.376065105E-01
       94     4.428186057E+00     3.318466680E-01     1.638454311E+00
       95     4.402614956E+00     3.299303784E-01     2.474955651E+00
       96     4.351889290E+00     3.261290146E-01     3.447756311E+00
       97     3.970181086E+00     2.975239388E-01     3.973889958E+00
       98     3.544953675E+00     2.656575496E-01     4.258162462E+00
       99     3.146205709E+00     2.357755206E-01     4.299600943E+00
      100     2.692299823E+00     2.017599795E-01     0.000000000E+00
      101     2.692299823E+00     2.017599791E-01     7.142857143E-01
      102     3.269205348E+00     2.449930719E-01     5.421010862E-17
      103     2.692299823E+00     2.017599764E-01     5.000000000E+00
      104     3.322794555E+00     2.490090246E-01     5.000000000E+00
      105     2.692299823E+00     2.017599768E-01     4.285714286E+00
      106     3.742072600E+00     2.804295705E-01     4.812458328E+00
      107     2.692299823E+00     2.017599773E-01     3.571428571E+00
      108     4.999906546E+00     3.746911940E-01     4.249832884E+00
      109     4.580628691E+00     3.432706624E-01     4.437374985E+00
      110     4.161350646E+00     3.118501164E-01     4.624916657E+00
      111     4.999999495E+00     3.746981601E-01     3.399866307E+00
      112     2.692299823E+00     2.017599777E-01     2.857142857E+00
      113     4.999999512E+00     3.746981619E-01     2.549899730E+00
      114     2.692299823E+00     2.017599782E-01     2.142857143E+00
      115     2.692299823E+00     2.017599786E-01     1.428571429E+00
      116     4.999921922E+00     3.746923489E-01     6.608212241E-13
      117     4.999999530E+00     3.746981638E-01     1.699933154E+00
      118     4.999999547E+00     3.746981656E-01     8.499665768E-01
      119     3.846110872E+00     2.882261642E-01     5.421010862E-17
      120     4.423016397E+00     3.314592566E-01     0.000000000E+00
      121     3.740165544E+00    -2.802866617E-01     3.518313356E+00
      122     3.463931175E+00    -2.595857574E-01     3.411832008E+00
      123     3.809594362E+00    -2.854896320E-01     2.961443386E+00
      124     3.830815662E+00    -2.870799482E-01     2.296594690E+00
      125     3.850567917E+00    -2.885601746E-01     1.546230655E+00
      126     3.415403296E+00    -2.559490959E-01     3.738739050E+00
      127     3.059759996E+00    -2.292973150E-01     3.619167128E+00
      128     3.241655235E+00    -2.429284783E-01     2.996314780E+00
      129     3.256319639E+00    -2.440274229E-01     2.218865272E+00
      130     3.270821905E+00    -2.451142170E-01     1.473385824E+00
      131     3.272397246E+00    -2.452322721E-01     7.217567029E-01
      132     3.854627193E+00    -2.888643747E-01     7.833243474E-01
      133     4.427761829E+00    -3.318148781E-01     8.375730841E-01
      134     4.428187485E+00    -3.318467771E-01     1.638403281E+00
      135     4.402616414E+00    -3.299304908E-01     2.474880234E+00
      136     4.351917173E+00    -3.261311086E-01     3.447659003E+00
      137     3.970289860E+00    -2.975320954E-01     3.973815910E+00
      138     3.545057051E+00    -2.656653019E-01     4.258116222E+00
      139     3.146246542E+00    -2.357785860E-01     4.299582678E+00
      140     2.692299823E+00    -2.017599795E-01     0.000000000E+00
      141     2.692299823E+00    -2.017599800E-01     7.142857143E-01
      142     3.269284027E+00    -2.449989681E-01     5.421010862E-17
      143     2.692299823E+00    -2.017599827E-01     5.000000000E+00
      144     3.322794554E+00    -2.490090309E-01     5.000000000E+00
      145     2.692299823E+00    -2.017599822E-01     4.285714286E+00
      146     3.742167037E+00    -2.804366537E-01     4.812416087E+00
      147     2.692299823E+00    -2.017599818E-01     3.571428571E+00
      148     5.000284014E+00    -3.747194867E-01     4.249663286E+00
      149     4.580912003E+00    -3.432918993E-01     4.437248260E+00
      150     4.161539520E+00    -3.118642765E-01     4.624832174E+00
      151     5.000001533E+00    -3.746983171E-01     3.399730629E+00
      152     2.692299823E+00    -2.017599813E-01     2.857142857E+00
      153     5.000001480E+00    -3.746983126E-01     2.549797972E+00
      154     2.692299823E+00    -2.017599809E-01     2.142857143E+00
      155     2.692299823E+00    -2.017599804E-01     1.428571429E+00
      156     5.000236638E+00    -3.747159336E-01     2.003063514E-12
      157     5.000001427E+00    -3.746983081E-01     1.699865314E+00
      158     5.000001374E+00    -3.746983036E-01     8.499326572E-01
      159     3.846268230E+00    -2.882379566E-01     5.421010862E-17
      160     4.423252434E+00    -3.314769451E-01     0.000000000E+00
      161     3.702896241E+00    -8.451619053E-01     3.499877056E+00
      162     3.419905961E+00    -7.805712204E-01     3.398278533E+00
      163     3.778578015E+00    -8.624357761E-01     2.943543345E+00
      164     3.800352147E+00    -8.674055792E-01     2.282023931E+00
      165     3.820618815E+00    -8.720313135E-01     1.536085500E+00
      166     3.366613359E+00    -7.684075319E-01     3.726155265E+00
      167     3.005387016E+00    -6.859599765E-01     3.612772414E+00
      168     3.195726975E+00    -7.294038296E-01     2.986579844E+00
      169     3.210880573E+00    -7.328625391E-01     2.211648775E+00
      170     3.225760614E+00    -7.362588110E-01     1.468409842E+00
      171     3.227375807E+00    -7.366274678E-01     7.216826518E-01
      172     3.824782672E+00    -8.729816863E-01     7.781347554E-01
      173     4.412857138E+00    -1.007205846E+00     8.274947889E-01
      174     4.413295163E+00    -1.007305822E+00     1.623017454E+00
      175     4.387058273E+00    -1.001317424E+00     2.452141464E+00
      176     4.332892478E+00    -9.889544351E-01     3.418306479E+00
      177     3.934719638E+00    -8.980740832E-01     3.951434721E+00
      178     3.496453595E+00    -7.980427188E-01     4.244122035E+00
      179     3.088046540E+00    -7.048264738E-01     4.294054984E+00
      180     2.632158294E+00    -6.007729541E-01    -5.421010862E-17
      181     2.632158294E+00    -6.007729545E-01     7.142857143E-01
      182     3.224181425E+00    -7.358983704E-01     0.000000000E+00
      183     2.632158293E+00    -6.007729566E-01     5.000000000E+00
      184     3.248568814E+00    -7.414646356E-01     5.000000000E+00
      185     2.632158293E+00    -6.007729563E-01     4.285714286E+00
      186     3.686515784E+00    -8.414231735E-01     4.799631888E+00
      187     2.632158293E+00    -6.007729559E-01     3.571428571E+00
      188     5.000356979E+00    -1.141298852E+00     4.198528213E+00
      189     4.562409723E+00    -1.041340249E+00     4.398895665E+00
      190     4.124462753E+00    -9.413817113E-01     4.599263777E+00
      191     5.000016625E+00    -1.141221168E+00     3.358822570E+00
      192     2.632158293E+00    -6.007729556E-01     2.857142857E+00
      193     5.000015573E+00    -1.141220928E+00     2.519116928E+00
      194     2.632158293E+00    -6.007729552E-01     2.142857143E+00
      195     2.632158293E+00    -6.007729548E-01     1.428571429E+00
      196     5.000250818E+00    -1.141274619E+00     5.918659660E-13
      197     5.000014522E+00    -1.141220687E+00     1.679411285E+00
      198     5.000013471E+00    -1.141220447E+00     8.397056426E-01
      199     3.816204556E+00    -8.710237868E-01    -5.421010862E-17
      200     4.408227687E+00    -1.006149203E+00    -5.421010862E-17
      201     3.629220220E+00    -1.424363976E+00     3.460790526E+00
      202     3.332863595E+00    -1.308052572E+00     3.369544293E+00
      203     3.717253371E+00    -1.458914442E+00     2.905592057E+00
      204     3.740119849E+00    -1.467888873E+00     2.251131317E+00
      205     3.761403094E+00    -1.476241931E+00     1.514575957E+00
      206     3.270159257E+00    -1.283442933E+00     3.699478298E+00
      207     2.897873896E+00    -1.137331695E+00     3.599215954E+00
      208     3.104904573E+00    -1.218585248E+00     2.965940082E+00
      209     3.121024524E+00    -1.224911863E+00     2.196348511E+00
      210     3.136651773E+00    -1.231045106E+00     1.457859869E+00
      211     3.138368227E+00    -1.231718764E+00     7.215256501E-01
      212     3.765796599E+00    -1.477966254E+00     7.671318919E-01
      213     4.383423127E+00    -1.720366804E+00     8.061270004E-01
      214     4.383862550E+00    -1.720539265E+00     1.590396750E+00
      215     4.356311199E+00    -1.709726157E+00     2.403931203E+00
      216     4.295298937E+00    -1.685780609E+00     3.356074710E+00
      217     3.864421786E+00    -1.516673789E+00     3.903985989E+00
      218     3.400372313E+00    -1.334547791E+00     4.214455090E+00
      219     2.972962393E+00    -1.166801759E+00     4.282336561E+00
      220     2.513218698E+00    -9.863656536E-01     0.000000000E+00
      221     2.513218698E+00    -9.863656538E-01     7.142857143E-01
      222     3.135013508E+00    -1.230402134E+00     0.000000000E+00
      223     2.513218697E+00    -9.863656550E-01     5.000000000E+00
      224     3.101775415E+00    -1.217357145E+00     5.000000000E+00
      225     2.513218697E+00    -9.863656548E-01     4.285714286E+00
      226     3.576492892E+00    -1.403670025E+00     4.772530055E+00
      227     2.513218697E+00    -9.863656546E-01     3.571428571E+00
      228     5.000642205E+00    -1.962607442E+00     4.090112711E+00
      229     4.525927847E+00    -1.776295786E+00     4.317590166E+00
      230     4.051210370E+00    -1.589982906E+00     4.545060111E+00
      231     5.000079197E+00    -1.962386478E+00     3.272090169E+00
      232     2.513218697E+00    -9.863656544E-01     2.857142857E+00
      233     5.000072676E+00    -1.962383918E+00     2.454067627E+00
      234     2.513218697E+00    -9.863656542E-01     2.142857143E+00
      235     2.513218698E+00    -9.863656540E-01     1.428571429E+00
      236     5.000397939E+00    -1.962511574E+00     3.406563226E-13
      237     5.000066156E+00    -1.962381359E+00     1.636045084E+00
      238     5.000059635E+00    -1.962378799E+00     8.180225422E-01
      239     3.756808319E+00    -1.474438614E+00     5.421010862E-17
      240     4.378603129E+00    -1.718475094E+00     5.421010862E-17
      241     3.520566049E+00    -2.032599756E+00     3.396222726E+00
      242     3.204566926E+00    -1.850157577E+00     3.322077136E+00
      243     3.626902414E+00    -2.093993085E+00     2.842902559E+00
      244     3.651380545E+00    -2.108125541E+00     2.200101627E+00
      245     3.674162579E+00    -2.121278754E+00     1.479045610E+00
      246     3.127914118E+00    -1.805902058E+00     3.655407018E+00
      247     2.739479250E+00    -1.581639082E+00     3.576820210E+00
      248     2.971168951E+00    -1.715405193E+00     2.931846399E+00
      249     2.988717258E+00    -1.725536713E+00     2.171074905E+00
      250     3.005443172E+00    -1.735193424E+00     1.440432991E+00
      251     3.007195080E+00    -1.736204889E+00     7.212663083E-01
      252     3.678778624E+00    -2.123943829E+00     7.489569097E-01
      253     4.339872134E+00    -2.505626345E+00     7.708308090E-01
      254     4.340430396E+00    -2.505948657E+00     1.536512528E+00
      255     4.310934916E+00    -2.488919434E+00     2.324295512E+00
      256     4.239777521E+00    -2.447836693E+00     3.253276235E+00
      257     3.760603007E+00    -2.171185158E+00     3.825602194E+00
      258     3.258646451E+00    -1.881380406E+00     4.165444262E+00
      259     2.803441235E+00    -1.618567551E+00     4.262977317E+00
      260     2.338137949E+00    -1.349924574E+00     1.084202172E-16
      261     2.338137949E+00    -1.349924574E+00     7.142857143E-01
      262     3.003603462E+00    -1.734131267E+00     1.084202172E-16
      263     2.338137949E+00    -1.349924574E+00     5.000000000E+00
      264     2.885693480E+00    -1.666055907E+00     5.000000000E+00
      265     2.338137949E+00    -1.349924574E+00     4.285714286E+00
      266     3.414270110E+00    -1.971229767E+00     4.727756882E+00
      267     2.338137949E+00    -1.349924574E+00     3.571428571E+00
      268     5.000000000E+00    -2.886751346E+00     3.911027528E+00
      269     4.471423370E+00    -2.581577486E+00     4.183270646E+00
      270     3.942846740E+00    -2.276403627E+00     4.455513764E+00
      271     5.000000000E+00    -2.886751346E+00     3.128822022E+00
      272     2.338137949E+00    -1.349924574E+00     2.857142857E+00
      273     5.000000000E+00    -2.886751346E+00     2.346616517E+00
      274     2.338137949E+00    -1.349924574E+00     2.142857143E+00
      275     2.338137949E+00    -1.349924574E+00     1.428571429E+00
      276     5.000000000E+00    -2.886751346E+00     0.000000000E+00
      277     5.000000000E+00    -2.886751346E+00     1.564411011E+00
      278     5.000000000E+00    -2.886751346E+00     7.822055056E-01
      279     3.669068975E+00    -2.118337960E+00     1.084202172E-16
      280     4.334534487E+00    -2.502544653E+00     1.626303259E-16
      281     3.047962655E+00    -2.430669106E+00     3.460989326E+00
      282     2.799086075E+00    -2.232196656E+00     3.369690175E+00
      283     3.121998423E+00    -2.489710661E+00     2.905786640E+00
      284     3.141189412E+00    -2.505014964E+00     2.251289709E+00
      285     3.159035371E+00    -2.519246642E+00     1.514686240E+00
      286     2.746338814E+00    -2.190132119E+00     3.699612368E+00
      287     2.433775669E+00    -1.940871329E+00     3.599284085E+00
      288     2.607736778E+00    -2.079600684E+00     2.966045867E+00
      289     2.621267721E+00    -2.090391251E+00     2.196426958E+00
      290     2.634368571E+00    -2.100838831E+00     1.457913961E+00
      291     2.635318453E+00    -2.101596337E+00     7.215264551E-01
      292     3.162225865E+00    -2.521790977E+00     7.671883056E-01
      293     3.680909379E+00    -2.935427276E+00     8.062365570E-01
      294     3.681786506E+00    -2.936126761E+00     1.590564002E+00
      295     3.658675259E+00    -2.917696156E+00     2.404178385E+00
      296     3.607408826E+00    -2.876812540E+00     3.356393008E+00
      297     3.245384308E+00    -2.588107620E+00     3.904226110E+00
      298     2.855677109E+00    -2.277326499E+00     4.214604187E+00
      299     2.496857933E+00    -1.991177755E+00     4.282395454E+00
      300     2.110827062E+00    -1.683328411E+00     1.084202172E-16
      301     2.110827062E+00    -1.683328410E+00     7.142857143E-01
      302     2.632496527E+00    -2.099345927E+00     1.084202172E-16
      303     2.110827064E+00    -1.683328409E+00     5.000000000E+00
      304     2.605149921E+00    -2.077537734E+00     5.000000000E+00
      305     2.110827063E+00    -1.683328409E+00     4.285714286E+00
      306     3.003621606E+00    -2.395308298E+00     4.772666261E+00
      307     2.110827063E+00    -1.683328410E+00     3.571428571E+00
      308     4.199037891E+00    -3.348620975E+00     4.090668577E+00
      309     3.800564975E+00    -3.030849428E+00     4.317998782E+00
      310     3.402093290E+00    -2.713078863E+00     4.545332521E+00
      311     4.199353746E+00    -3.348872861E+00     3.272534861E+00
      312     2.110827063E+00    -1.683328410E+00     2.857142857E+00
      313     4.199312823E+00    -3.348840227E+00     2.454401146E+00
      314     2.110827063E+00    -1.683328410E+00     2.142857143E+00
      315     2.110827063E+00    -1.683328410E+00     1.428571429E+00
      316     4.197504921E+00    -3.347398475E+00    -2.573028596E-12
      317     4.199271901E+00    -3.348807593E+00     1.636267431E+00
      318     4.199230978E+00    -3.348774958E+00     8.181337154E-01
      319     3.154165992E+00    -2.515363443E+00     1.626303259E-16
      320     3.675835457E+00    -2.931380959E+00     1.626303259E-16
      321     2.583313758E+00    -2.784150081E+00     3.499974961E+00
      322     2.385889504E+00    -2.571377338E+00     3.398350585E+00
      323     2.636171084E+00    -2.841116730E+00     2.943637948E+00
      324     2.651362381E+00    -2.857489055E+00     2.282100939E+00
      325     2.665500442E+00    -2.872726263E+00     1.536139117E+00
      326     2.348664504E+00    -2.531258329E+00     3.726222561E+00
      327     2.096700127E+00    -2.259705313E+00     3.612806612E+00
      328     2.229539713E+00    -2.402872339E+00     2.986631305E+00
      329     2.240113425E+00    -2.414268091E+00     2.211686915E+00
      330     2.250492782E+00    -2.425454378E+00     1.468436140E+00
      331     2.251552413E+00    -2.426596391E+00     7.216830432E-01
      332     2.668337134E+00    -2.875783491E+00     7.781621826E-01
      333     3.078612221E+00    -3.317954874E+00     8.275480531E-01
      334     3.078987153E+00    -3.318358954E+00     1.623098769E+00
      335     3.060681903E+00    -3.298630585E+00     2.452261639E+00
      336     3.022864265E+00    -3.257872863E+00     3.418461835E+00
      337     2.744991460E+00    -2.958397202E+00     3.951553928E+00
      338     2.439237946E+00    -2.628873283E+00     4.244196874E+00
      339     2.154375825E+00    -2.321864932E+00     4.294084545E+00
      340     1.836363787E+00    -1.979129472E+00     1.084202172E-16
      341     1.836363787E+00    -1.979129472E+00     7.142857143E-01
      342     2.249323193E+00    -2.424193863E+00     2.168404345E-16
      343     1.836363790E+00    -1.979129469E+00     5.000000000E+00
      344     2.266411619E+00    -2.442610800E+00     5.000000000E+00
      345     1.836363790E+00    -1.979129469E+00     4.285714286E+00
      346     2.571847484E+00    -2.771792374E+00     4.799700256E+00
      347     1.836363789E+00    -1.979129470E+00     3.571428571E+00
      348     3.488154301E+00    -3.759336259E+00     4.198798464E+00
      349     3.182719213E+00    -3.430155522E+00     4.399100768E+00
      350     2.877283348E+00    -3.100973948E+00     4.599400512E+00
      351     3.488315340E+00    -3.759509819E+00     3.359038771E+00
      352     1.836363789E+00    -1.979129470E+00     2.857142857E+00
      353     3.488315805E+00    -3.759510322E+00     2.519279078E+00
      354     1.836363788E+00    -1.979129471E+00     2.142857143E+00
      355     1.836363788E+00    -1.979129471E+00     1.428571429E+00
      356     3.488201410E+00    -3.759387036E+00    -7.033219493E-13
      357     3.488316271E+00    -3.759510825E+00     1.679519386E+00
      358     3.488316737E+00    -3.759511329E+00     8.397596928E-01
      359     2.662282598E+00    -2.869258254E+00     2.168404345E-16
      360     3.075242004E+00    -3.314322645E+00     2.168404345E-16
      361     2.112786698E+00    -3.098888921E+00     3.518374567E+00
      362     1.956745238E+00    -2.870018135E+00     3.411876979E+00
      363     2.152037907E+00    -3.156459871E+00     2.961502985E+00
      364     2.164025815E+00    -3.174042905E+00     2.296643204E+00
      365     2.175182818E+00    -3.190407225E+00     1.546264434E+00
      366     1.929307526E+00    -2.829774401E+00     3.738780655E+00
      367     1.728430599E+00    -2.535142064E+00     3.619188270E+00
      368     1.831208833E+00    -2.685890047E+00     2.996347189E+00
      369     1.839493498E+00    -2.698041421E+00     2.218889300E+00
      370     1.847684513E+00    -2.710055435E+00     1.473402392E+00
      371     1.848531955E+00    -2.711298406E+00     7.217569495E-01
      372     2.177432779E+00    -3.193707313E+00     7.833416266E-01
      373     2.501196400E+00    -3.668581328E+00     8.376066405E-01
      374     2.501480676E+00    -3.668998283E+00     1.638454509E+00
      375     2.487035572E+00    -3.647811203E+00     2.474955945E+00
      376     2.458380653E+00    -3.605782155E+00     3.447756651E+00
      377     2.242753802E+00    -3.289515649E+00     3.973890087E+00
      378     2.002542996E+00    -2.937191106E+00     4.258162490E+00
      379     1.777290438E+00    -2.606806284E+00     4.299600954E+00
      380     1.520879179E+00    -2.230720051E+00     5.421010862E-17
      381     1.520879180E+00    -2.230720051E+00     7.142857143E-01
      382     1.846772898E+00    -2.708718345E+00     1.084202172E-16
      383     1.520879185E+00    -2.230720047E+00     5.000000000E+00
      384     1.877045427E+00    -2.753119978E+00     5.000000000E+00
      385     1.520879184E+00    -2.230720048E+00     4.285714286E+00
      386     2.113895408E+00    -3.100515096E+00     4.812458354E+00
      387     1.520879183E+00    -2.230720048E+00     3.571428571E+00
      388     2.824445382E+00    -4.142700497E+00     4.249833544E+00
      389     2.587595369E+00    -3.795305332E+00     4.437375063E+00
      390     2.350745389E+00    -3.447910214E+00     4.624916708E+00
      391     2.824497879E+00    -4.142777498E+00     3.399866835E+00
      392     1.520879183E+00    -2.230720049E+00     2.857142857E+00
      393     2.824497888E+00    -4.142777513E+00     2.549900126E+00
      394     1.520879182E+00    -2.230720050E+00     2.142857143E+00
      395     1.520879181E+00    -2.230720050E+00     1.428571429E+00
      396     2.824454054E+00    -4.142713227E+00    -1.525201406E-12
      397     2.824497896E+00    -4.142777528E+00     1.699933418E+00
      398     2.824497905E+00    -4.142777543E+00     8.499667088E-01
      399     2.172666616E+00    -3.186716639E+00     1.626303259E-16
      400     2.498560335E+00    -3.664714933E+00     1.626303259E-16
      401     1.627347377E+00    -3.379221631E+00     3.518313680E+00
      402     1.507157705E+00    -3.129645205E+00     3.411832220E+00
      403     1.657555914E+00    -3.441950307E+00     2.961443857E+00
      404     1.666789309E+00    -3.461123652E+00     2.296595074E+00
      405     1.675383521E+00    -3.478969720E+00     1.546230922E+00
      406     1.486043180E+00    -3.085800443E+00     3.738739109E+00
      407     1.331302678E+00    -2.764478479E+00     3.619167158E+00
      408     1.410445391E+00    -2.928820018E+00     2.996315032E+00
      409     1.416825877E+00    -2.942069239E+00     2.218865462E+00
      410     1.423135817E+00    -2.955171967E+00     1.473385955E+00
      411     1.423821247E+00    -2.956595281E+00     7.217567049E-01
      412     1.677149711E+00    -3.482637257E+00     7.833244841E-01
      413     1.926520803E+00    -4.000461664E+00     8.375733495E-01
      414     1.926706007E+00    -4.000846241E+00     1.638403686E+00
      415     1.915580026E+00    -3.977742900E+00     2.474880833E+00
      416     1.893520754E+00    -3.931936343E+00     3.447659698E+00
      417     1.727474520E+00    -3.587137783E+00     3.973816182E+00
      418     1.542455572E+00    -3.202941977E+00     4.258116288E+00
      419     1.368933011E+00    -2.842618668E+00     4.299582704E+00
      420     1.171420644E+00    -2.432480031E+00     2.168404345E-16
      421     1.171420645E+00    -2.432480030E+00     7.142857143E-01
      422     1.422466683E+00    -2.953782503E+00     2.168404345E-16
      423     1.171420653E+00    -2.432480026E+00     5.000000000E+00
      424     1.445749143E+00    -3.002129005E+00     5.000000000E+00
      425     1.171420652E+00    -2.432480027E+00     4.285714286E+00
      426     1.628218206E+00    -3.381029919E+00     4.812416147E+00
      427     1.171420650E+00    -2.432480028E+00     3.571428571E+00
      428     2.175625404E+00    -4.517732681E+00     4.249664632E+00
      429     1.993156332E+00    -4.138831748E+00     4.437248440E+00
      430     1.810687269E+00    -3.759930834E+00     4.624832293E+00
      431     2.175502513E+00    -4.517477500E+00     3.399731706E+00
      432     1.171420649E+00    -2.432480028E+00     2.857142857E+00
      433     2.175502489E+00    -4.517477454E+00     2.549798779E+00
      434     1.171420648E+00    -2.432480029E+00     2.142857143E+00
      435     1.171420646E+00    -2.432480030E+00     1.428571429E+00
      436     2.175604801E+00    -4.517689920E+00    -6.598671262E-12
      437     2.175502464E+00    -4.517477407E+00     1.699865853E+00
      438     2.175502440E+00    -4.517477360E+00     8.499329265E-01
      439     1.673512722E+00    -3.475084975E+00     2.168404345E-16
      440     1.924558762E+00    -3.996387448E+00     3.252606517E-16
      441     1.119516608E+00    -3.629383669E+00     3.499874743E+00
      442     1.033958626E+00    -3.352011504E+00     3.398277026E+00
      443     1.142397726E+00    -3.703562437E+00     2.943539960E+00
      444     1.148980814E+00    -3.724904290E+00     2.282021176E+00
      445     1.155108142E+00    -3.744768607E+00     1.536083581E+00
      446     1.017846512E+00    -3.299777312E+00     3.726154866E+00
      447     9.086348882E-01    -2.945721924E+00     3.612772211E+00
      448     9.661812546E-01    -3.132282668E+00     2.986578031E+00
      449     9.707627172E-01    -3.147135412E+00     2.211647410E+00
      450     9.752614777E-01    -3.161720043E+00     1.468408901E+00
      451     9.757498056E-01    -3.163303170E+00     7.216826378E-01
      452     1.156367021E+00    -3.748849800E+00     7.781337739E-01
      453     1.334162723E+00    -4.325249307E+00     8.274928828E-01
      454     1.334295155E+00    -4.325678635E+00     1.623014544E+00
      455     1.326362818E+00    -4.299962622E+00     2.452137163E+00
      456     1.309986661E+00    -4.246872417E+00     3.418301494E+00
      457     1.189605169E+00    -3.856605200E+00     3.951432798E+00
      458     1.057101837E+00    -3.427039944E+00     4.244121591E+00
      459     9.336257681E-01    -3.026740361E+00     4.294054808E+00
      460     7.957945067E-01    -2.579902426E+00     1.626303259E-16
      461     7.957945086E-01    -2.579902426E+00     7.142857143E-01
      462     9.747840289E-01    -3.160172205E+00     2.168404345E-16
      463     7.957945198E-01    -2.579902422E+00     5.000000000E+00
      464     9.821572123E-01    -3.184075432E+00     5.000000000E+00
      465     7.957945180E-01    -2.579902423E+00     4.285714286E+00
      466     1.114564332E+00    -3.613328772E+00     4.799631482E+00
      467     7.957945161E-01    -2.579902423E+00     3.571428571E+00
      468     1.511784719E+00    -4.901085644E+00     4.198518542E+00
      469     1.379378571E+00    -4.471835453E+00     4.398894447E+00
      470     1.246971451E+00    -4.042582113E+00     4.599262965E+00
      471     1.511681800E+00    -4.900751997E+00     3.358814833E+00
      472     7.957945142E-01    -2.579902424E+00     2.857142857E+00
      473     1.511681480E+00    -4.900750967E+00     2.519111125E+00
      474     7.957945123E-01    -2.579902424E+00     2.142857143E+00
      475     7.957945104E-01    -2.579902425E+00     1.428571429E+00
      476     1.511752596E+00    -4.900981543E+00    -3.105046602E-12
      477     1.511681160E+00    -4.900749937E+00     1.679407417E+00
      478     1.511680840E+00    -4.900748908E+00     8.397037083E-01
      479     1.153773551E+00    -3.740441985E+00     2.168404345E-16
      480     1.332763073E+00    -4.320711764E+00     2.710505431E-16
      481     5.810746567E-01    -3.855178371E+00     3.460792889E+00
      482     5.336249827E-01    -3.540370355E+00     3.369545831E+00
      483     5.951697281E-01    -3.948693072E+00     2.905595525E+00
      484     5.988308793E-01    -3.972983239E+00     2.251134140E+00
      485     6.022385388E-01    -3.995591599E+00     1.514577923E+00
      486     5.235853254E-01    -3.473761574E+00     3.699478696E+00
      487     4.639787530E-01    -3.078297808E+00     3.599216157E+00
      488     4.971265141E-01    -3.298218848E+00     2.965941939E+00
      489     4.997074798E-01    -3.315342454E+00     2.196349909E+00
      490     5.022095573E-01    -3.331942671E+00     1.457860833E+00
      491     5.024843763E-01    -3.333765993E+00     7.215256645E-01
      492     6.029419805E-01    -4.000258648E+00     7.671328974E-01
      493     7.018302107E-01    -4.656339186E+00     8.061289531E-01
      494     7.019005696E-01    -4.656805968E+00     1.590399731E+00
      495     6.974893235E-01    -4.627539244E+00     2.403935608E+00
      496     6.877206109E-01    -4.562728048E+00     3.356079813E+00
      497     6.187327224E-01    -4.105023302E+00     3.903987946E+00
      498     5.444337343E-01    -3.612081717E+00     4.214455533E+00
      499     4.760011895E-01    -3.158061446E+00     4.282336736E+00
      500     4.023916354E-01    -2.669694064E+00     1.626303259E-16
      501     4.023916379E-01    -2.669694064E+00     7.142857143E-01
      502     5.019472495E-01    -3.330202406E+00     2.168404345E-16
      503     4.023916525E-01    -2.669694062E+00     5.000000000E+00
      504     4.966255131E-01    -3.294894876E+00     5.000000000E+00
      505     4.023916501E-01    -2.669694062E+00     4.285714286E+00
      506     5.726324284E-01    -3.799167815E+00     4.772530460E+00
      507     4.023916477E-01    -2.669694062E+00     3.571428571E+00
      508     8.006532259E-01    -5.311986976E+00     4.090122618E+00
      509     7.246462589E-01    -4.807713693E+00     4.317591379E+00
      510     6.486393436E-01    -4.303440754E+00     4.545060919E+00
      511     8.005630695E-01    -5.311388846E+00     3.272098095E+00
      512     4.023916452E-01    -2.669694063E+00     2.857142857E+00
      513     8.005620226E-01    -5.311381919E+00     2.454073571E+00
      514     4.023916428E-01    -2.669694063E+00     2.142857143E+00
      515     4.023916403E-01    -2.669694064E+00     1.428571429E+00
      516     8.006140916E-01    -5.311727431E+00    -3.765922036E-12
      517     8.005609756E-01    -5.311374992E+00     1.636049047E+00
      518     8.005599286E-01    -5.311368065E+00     8.180245237E-01
      519     6.015028635E-01    -3.990710748E+00     2.168404345E-16
      520     7.010584776E-01    -4.651219090E+00     2.710505431E-16
      521     1.418313816E-08    -4.065199513E+00     3.396222726E+00
      522     1.387349405E-08    -3.700315155E+00     3.322077136E+00
      523     1.187238866E-08    -4.187986170E+00     2.842902559E+00
      524     9.187953591E-09    -4.216251081E+00     2.200101627E+00
      525     6.176713294E-09    -4.242557508E+00     1.479045610E+00
      526     1.526553050E-08    -3.611804116E+00     3.655407018E+00
      527     1.493733901E-08    -3.163278165E+00     3.576820210E+00
      528     1.224383016E-08    -3.430810387E+00     2.931846399E+00
      529     9.066731939E-09    -3.451073426E+00     2.171074905E+00
      530     6.015459452E-09    -3.470386848E+00     1.440432991E+00
      531     3.012109254E-09    -3.472409777E+00     7.212663083E-01
      532     3.127751086E-09    -4.247887658E+00     7.489569097E-01
      533     3.219101452E-09    -5.011252689E+00     7.708308090E-01
      534     6.416705573E-09    -5.011897315E+00     1.536512528E+00
      535     9.706607885E-09    -4.977838868E+00     2.324295512E+00
      536     1.358617348E-08    -4.895673386E+00     3.253276235E+00
      537     1.597629316E-08    -4.342370317E+00     3.825602194E+00
      538     1.739552446E-08    -3.762760812E+00     4.165444262E+00
      539     1.780283632E-08    -3.237135103E+00     4.262977317E+00
      540    -1.094002496E-14    -2.699849149E+00     1.626303259E-16
      541     2.982955592E-09    -2.699849149E+00     7.142857143E-01
      542    -9.315783057E-15    -3.468262534E+00     2.168404345E-16
      543     2.088075478E-08    -2.699849149E+00     5.000000000E+00
      544     2.088075612E-08    -3.332111815E+00     5.000000000E+00
      545     1.789778825E-08    -2.699849149E+00     4.285714286E+00
      546     1.974382845E-08    -3.942459534E+00     4.727756882E+00
      547     1.491482172E-08    -2.699849149E+00     3.571428571E+00
      548     0.000000000E+00    -5.773502692E+00     3.911027528E+00
      549     1.746997313E-08    -5.163154973E+00     4.183270646E+00
      550     1.860690079E-08    -4.552807253E+00     4.455513764E+00
      551     1.306643548E-08    -5.773502692E+00     3.128822022E+00
      552     1.193185519E-08    -2.699849149E+00     2.857142857E+00
      553     9.799825502E-09    -5.773502692E+00     2.346616517E+00
      554     8.948888655E-09    -2.699849149E+00     2.142857143E+00
      555     5.965922123E-09    -2.699849149E+00     1.428571429E+00
      556     0.000000000E+00    -5.773502692E+00     0.000000000E+00
      557     6.533215520E-09    -5.773502692E+00     1.564411011E+00
      558     3.266605539E-09    -5.773502692E+00     7.822055056E-01
      559    -7.691541152E-15    -4.236675920E+00     2.710505431E-16
      560    -6.067299246E-15    -5.005089306E+00     3.252606517E-16
      561    -5.810398514E-01    -3.854947647E+00     3.460989324E+00
      562    -5.335959584E-01    -3.540177981E+00     3.369690174E+00
      563    -5.951534565E-01    -3.948585280E+00     2.905786639E+00
      564    -5.988118802E-01    -3.972857314E+00     2.251289708E+00
      565    -6.022138984E-01    -3.995428206E+00     1.514686240E+00
      566    -5.235406297E-01    -3.473465245E+00     3.699612367E+00
      567    -4.639560258E-01    -3.078147224E+00     3.599284084E+00
      568    -4.971186202E-01    -3.298166641E+00     2.966045866E+00
      569    -4.996980575E-01    -3.315280064E+00     2.196426957E+00
      570    -5.021955051E-01    -3.331849522E+00     1.457913960E+00
      571    -5.023765868E-01    -3.333050897E+00     7.215264551E-01
      572    -6.028221130E-01    -3.999463421E+00     7.671883053E-01
      573    -7.016998993E-01    -4.655474671E+00     8.062365563E-01
      574    -7.018671042E-01    -4.656584029E+00     1.590564001E+00
      575    -6.974613522E-01    -4.627353801E+00     2.404178384E+00
      576    -6.876883141E-01    -4.562513961E+00     3.356393006E+00
      577    -6.186747760E-01    -4.104639072E+00     3.904226109E+00
      578    -5.443840283E-01    -3.611752176E+00     4.214604186E+00
      579    -4.759815340E-01    -3.157931281E+00     4.282395454E+00
      580    -4.023916354E-01    -2.669694064E+00     1.626303259E-16
      581    -4.023916320E-01    -2.669694065E+00     7.142857143E-01
      582    -5.018386403E-01    -3.329481831E+00     1.626303259E-16
      583    -4.023916112E-01    -2.669694068E+00     5.000000000E+00
      584    -4.966254718E-01    -3.294894883E+00     5.000000000E+00
      585    -4.023916147E-01    -2.669694067E+00     4.285714286E+00
      586    -5.725870125E-01    -3.798866768E+00     4.772666260E+00
      587    -4.023916182E-01    -2.669694067E+00     3.571428571E+00
      588    -8.004718694E-01    -5.310783983E+00     4.090668574E+00
      589    -7.245100938E-01    -4.806810539E+00     4.317998780E+00
      590    -6.485485531E-01    -4.302838653E+00     4.545332520E+00
      591    -8.005320852E-01    -5.311183462E+00     3.272534859E+00
      592    -4.023916216E-01    -2.669694066E+00     2.857142857E+00
      593    -8.005242878E-01    -5.311131703E+00     2.454401144E+00
      594    -4.023916251E-01    -2.669694066E+00     2.142857143E+00
      595    -4.023916285E-01    -2.669694065E+00     1.428571429E+00
      596    -8.001796548E-01    -5.308845132E+00    -3.102222255E-11
      597    -8.005164904E-01    -5.311079944E+00     1.636267429E+00
      598    -8.005086930E-01    -5.311028184E+00     8.181337147E-01
      599    -6.012856451E-01    -3.989269598E+00     2.168404345E-16
      600    -7.007326500E-01    -4.649057365E+00     2.168404345E-16
      601    -1.119487804E+00    -3.629290388E+00     3.499974960E+00
      602    -1.033933331E+00    -3.351929597E+00     3.398350585E+00
      603    -1.142393709E+00    -3.703549498E+00     2.943637947E+00
      604    -1.148976913E+00    -3.724891708E+00     2.282100938E+00
      605    -1.155103694E+00    -3.744754232E+00     1.536139117E+00
      606    -1.017801748E+00    -3.299632297E+00     3.726222561E+00
      607    -9.086121268E-01    -2.945648236E+00     3.612806611E+00
      608    -9.661786180E-01    -3.132274205E+00     2.986631305E+00
      609    -9.707607762E-01    -3.147129182E+00     2.211686914E+00
      610    -9.752587100E-01    -3.161711112E+00     1.468436140E+00
      611    -9.757179091E-01    -3.163199784E+00     7.216830432E-01
      612    -1.156332988E+00    -3.748739491E+00     7.781621824E-01
      613    -1.334127096E+00    -4.325133831E+00     8.275480528E-01
      614    -1.334289569E+00    -4.325660573E+00     1.623098768E+00
      615    -1.326356922E+00    -4.299943579E+00     2.452261638E+00
      616    -1.309968515E+00    -4.246813684E+00     3.418461833E+00
      617    -1.189551384E+00    -3.856430946E+00     3.951553927E+00
      618    -1.057052055E+00    -3.426878675E+00     4.244196873E+00
      619    -9.336060835E-01    -3.026676666E+00     4.294084545E+00
      620    -7.957945067E-01    -2.579902426E+00     1.084202172E-16
      621    -7.957945029E-01    -2.579902427E+00     7.142857143E-01
      622    -9.747518728E-01    -3.160067958E+00     1.626303259E-16
      623    -7.957944799E-01    -2.579902434E+00     5.000000000E+00
      624    -9.821571724E-01    -3.184075444E+00     5.000000000E+00
      625    -7.957944838E-01    -2.579902433E+00     4.285714286E+00
      626    -1.114518847E+00    -3.613181450E+00     4.799700255E+00
      627    -7.957944876E-01    -2.579902432E+00     3.571428571E+00
      628    -1.511603534E+00    -4.900498376E+00     4.198798462E+00
      629    -1.379242196E+00    -4.471393462E+00     4.399100766E+00
      630    -1.246880521E+00    -4.042287456E+00     4.599400511E+00
      631    -1.511673325E+00    -4.900724618E+00     3.359038769E+00
      632    -7.957944914E-01    -2.579902431E+00     2.857142857E+00
      633    -1.511673531E+00    -4.900725271E+00     2.519279077E+00
      634    -7.957944952E-01    -2.579902430E+00     2.142857143E+00
      635    -7.957944990E-01    -2.579902428E+00     1.428571429E+00
      636    -1.511623971E+00    -4.900564553E+00    -4.392590892E-12
      637    -1.511673738E+00    -4.900725924E+00     1.679519385E+00
      638    -1.511673944E+00    -4.900726577E+00     8.397596924E-01
      639    -1.153709239E+00    -3.740233489E+00     2.168404345E-16
      640    -1.332666605E+00    -4.320399021E+00     2.710505431E-16
      641    -1.627323165E+00    -3.379171422E+00     3.518374567E+00
      642    -1.507135980E+00    -3.129600160E+00     3.411876979E+00
      643    -1.657555469E+00    -3.441949439E+00     2.961502985E+00
      644    -1.666788871E+00    -3.461122787E+00     2.296643204E+00
      645    -1.675382290E+00    -3.478967194E+00     1.546264433E+00
      646    -1.486002740E+00    -3.085716538E+00     3.738780655E+00
      647    -1.331282114E+00    -2.764435847E+00     3.619188270E+00
      648    -1.410444583E+00    -2.928818399E+00     2.996347188E+00
      649    -1.416825652E+00    -2.942068815E+00     2.218889300E+00
      650    -1.423134590E+00    -2.955169447E+00     1.473402392E+00
      651    -1.423787317E+00    -2.956524837E+00     7.217569495E-01
      652    -1.677115273E+00    -3.482565760E+00     7.833416265E-01
      653    -1.926486423E+00    -4.000390289E+00     8.376066404E-01
      654    -1.926705374E+00    -4.000844958E+00     1.638454509E+00
      655    -1.915579374E+00    -3.977741592E+00     2.474955944E+00
      656    -1.893508605E+00    -3.931911183E+00     3.447756650E+00
      657    -1.727427200E+00    -3.587039600E+00     3.973890087E+00
      658    -1.542410597E+00    -3.202848669E+00     4.258162490E+00
      659    -1.368915227E+00    -2.842581820E+00     4.299600954E+00
      660    -1.171420644E+00    -2.432480031E+00     5.421010862E-17
      661    -1.171420640E+00    -2.432480033E+00     7.142857143E-01
      662    -1.422432450E+00    -2.953711417E+00     1.084202172E-16
      663    -1.171420615E+00    -2.432480045E+00     5.000000000E+00
      664    -1.445749105E+00    -3.002129023E+00     5.000000000E+00
      665    -1.171420619E+00    -2.432480043E+00     4.285714286E+00
      666    -1.628177113E+00    -3.380944682E+00     4.812458354E+00
      667    -1.171420623E+00    -2.432480041E+00     3.571428571E+00
      668    -2.175461162E+00    -4.517391711E+00     4.249833543E+00
      669    -1.993033129E+00    -4.138576001E+00     4.437375062E+00
      670    -1.810605121E+00    -3.759760342E+00     4.624916708E+00
      671    -2.175501602E+00    -4.517475674E+00     3.399866835E+00
      672    -1.171420628E+00    -2.432480039E+00     2.857142857E+00
      673    -2.175501614E+00    -4.517475687E+00     2.549900126E+00
      674    -1.171420632E+00    -2.432480037E+00     2.142857143E+00
      675    -1.171420636E+00    -2.432480035E+00     1.428571429E+00
      676    -2.175467868E+00    -4.517405576E+00    -6.549340063E-12
      677    -2.175501626E+00    -4.517475699E+00     1.699933417E+00
      678    -2.175501638E+00    -4.517475712E+00     8.499667086E-01
      679    -1.673444256E+00    -3.474942803E+00     1.626303259E-16
      680    -1.924456062E+00    -3.996174190E+00     2.168404345E-16
      681    -2.112818075E+00    -3.098934994E+00     3.518313680E+00
      682    -1.956773386E+00    -2.870059471E+00     3.411832220E+00
      683    -2.152038436E+00    -3.156460691E+00     2.961443857E+00
      684    -2.164026345E+00    -3.174043716E+00     2.296595074E+00
      685    -2.175184390E+00    -3.190409554E+00     1.546230922E+00
      686    -1.929359969E+00    -2.829851376E+00     3.738739109E+00
      687    -1.728457238E+00    -2.535181189E+00     3.619167158E+00
      688    -1.831209831E+00    -2.685891556E+00     2.996315032E+00
      689    -1.839493753E+00    -2.698041828E+00     2.218865462E+00
      690    -1.847686082E+00    -2.710057758E+00     1.473385955E+00
      691    -1.848575996E+00    -2.711363013E+00     7.217567049E-01
      692    -2.177477478E+00    -3.193772887E+00     7.833244842E-01
      693    -2.501241023E+00    -3.668646790E+00     8.375733496E-01
      694    -2.501481471E+00    -3.668999472E+00     1.638403686E+00
      695    -2.487036378E+00    -3.647812422E+00     2.474880833E+00
      696    -2.458396368E+00    -3.605805255E+00     3.447659699E+00
      697    -2.242815171E+00    -3.289605720E+00     3.973816182E+00
      698    -2.002601316E+00    -2.937276709E+00     4.258116288E+00
      699    -1.777313457E+00    -2.606840109E+00     4.299582704E+00
      700    -1.520879179E+00    -2.230720051E+00     5.421010862E-17
      701    -1.520879175E+00    -2.230720054E+00     7.142857143E-01
      702    -1.846817344E+00    -2.708783535E+00     5.421010862E-17
      703    -1.520879151E+00    -2.230720071E+00     5.000000000E+00
      704    -1.877045393E+00    -2.753120001E+00     5.000000000E+00
      705    -1.520879155E+00    -2.230720068E+00     4.285714286E+00
      706    -2.113948679E+00    -3.100593302E+00     4.812416147E+00
      707    -1.520879159E+00    -2.230720065E+00     3.571428571E+00
      708    -2.824658550E+00    -4.143013220E+00     4.249664633E+00
      709    -2.587755252E+00    -3.795539902E+00     4.437248441E+00
      710    -2.350851965E+00    -3.448066602E+00     4.624832294E+00
      711    -2.824499006E+00    -4.142779201E+00     3.399731707E+00
      712    -1.520879163E+00    -2.230720062E+00     2.857142857E+00
      713    -2.824498981E+00    -4.142779154E+00     2.549798780E+00
      714    -1.520879167E+00    -2.230720060E+00     2.142857143E+00
      715    -1.520879171E+00    -2.230720057E+00     1.428571429E+00
      716    -2.824631837E+00    -4.142973986E+00    -2.182601972E-11
      717    -2.824498956E+00    -4.142779107E+00     1.699865853E+00
      718    -2.824498931E+00    -4.142779061E+00     8.499329266E-01
      719    -2.172755508E+00    -3.186847019E+00     1.084202172E-16
      720    -2.498693672E+00    -3.664910503E+00     1.626303259E-16
      721    -2.583380141E+00    -2.784221667E+00     3.499874744E+00
      722    -2.385947791E+00    -2.571440198E+00     3.398277026E+00
      723    -2.636180281E+00    -2.841126678E+00     2.943539960E+00
      724    -2.651371326E+00    -2.857498724E+00     2.282021176E+00
      725    -2.665510668E+00    -2.872737303E+00     1.536083581E+00
      726    -2.348767709E+00    -2.531369604E+00     3.726154866E+00
      727    -2.096752562E+00    -2.259761869E+00     3.612772211E+00
      728    -2.229545724E+00    -2.402878854E+00     2.986578032E+00
      729    -2.240117850E+00    -2.414272887E+00     2.211647410E+00
      730    -2.250499132E+00    -2.425461241E+00     1.468408901E+00
      731    -2.251626000E+00    -2.426675707E+00     7.216826378E-01
      732    -2.668415649E+00    -2.875868119E+00     7.781337741E-01
      733    -3.078694413E+00    -3.318043466E+00     8.274928832E-01
      734    -3.079000003E+00    -3.318372822E+00     1.623014545E+00
      735    -3.060695447E+00    -3.298645212E+00     2.452137164E+00
      736    -3.022906055E+00    -3.257917944E+00     3.418301496E+00
      737    -2.745115476E+00    -2.958530908E+00     3.951432798E+00
      738    -2.439352717E+00    -2.628997029E+00     4.244121591E+00
      739    -2.154421144E+00    -2.321913827E+00     4.294054808E+00
      740    -1.836363787E+00    -1.979129472E+00     1.626303259E-16
      741    -1.836363783E+00    -1.979129476E+00     7.142857143E-01
      742    -2.249397396E+00    -2.424273835E+00     1.626303259E-16
      743    -1.836363760E+00    -1.979129497E+00     5.000000000E+00
      744    -2.266411588E+00    -2.442610828E+00     5.000000000E+00
      745    -1.836363764E+00    -1.979129494E+00     4.285714286E+00
      746    -2.571952326E+00    -2.771905426E+00     4.799631483E+00
      747    -1.836363767E+00    -1.979129490E+00     3.571428571E+00
      748    -3.488572297E+00    -3.759786804E+00     4.198518544E+00
      749    -3.183033801E+00    -3.430494622E+00     4.398894448E+00
      750    -2.877493063E+00    -3.101200024E+00     4.599262966E+00
      751    -3.488334813E+00    -3.759530848E+00     3.358814835E+00
      752    -1.836363771E+00    -1.979129487E+00     2.857142857E+00
      753    -3.488334085E+00    -3.759530053E+00     2.519111126E+00
      754    -1.836363775E+00    -1.979129483E+00     2.142857143E+00
      755    -1.836363779E+00    -1.979129479E+00     1.428571429E+00
      756    -3.488498222E+00    -3.759706924E+00    -8.404247350E-12
      757    -3.488333356E+00    -3.759529259E+00     1.679407417E+00
      758    -3.488332628E+00    -3.759528465E+00     8.397037087E-01
      759    -2.662431004E+00    -2.869418198E+00     1.626303259E-16
      760    -3.075464613E+00    -3.314562561E+00     2.710505431E-16
      761    -3.048145065E+00    -2.430814610E+00     3.460792890E+00
      762    -2.799238164E+00    -2.232317979E+00     3.369545832E+00
      763    -3.122083638E+00    -2.489778649E+00     2.905595526E+00
      764    -3.141288966E+00    -2.505094380E+00     2.251134141E+00
      765    -3.159164553E+00    -2.519349678E+00     1.514577923E+00
      766    -2.746573095E+00    -2.190318992E+00     3.699478697E+00
      767    -2.433894715E+00    -1.940966303E+00     3.599216157E+00
      768    -2.607778043E+00    -2.079633623E+00     2.965941939E+00
      769    -2.621317041E+00    -2.090430606E+00     2.196349909E+00
      770    -2.634442214E+00    -2.100897575E+00     1.457860834E+00
      771    -2.635883850E+00    -2.102047234E+00     7.215256645E-01
      772    -3.162854618E+00    -2.522292398E+00     7.671328977E-01
      773    -3.681592915E+00    -2.935972386E+00     8.061289537E-01
      774    -3.681961978E+00    -2.936266712E+00     1.590399732E+00
      775    -3.658821871E+00    -2.917813102E+00     2.403935610E+00
      776    -3.607578082E+00    -2.876947553E+00     3.356079815E+00
      777    -3.245688088E+00    -2.588349918E+00     3.903987948E+00
      778    -2.855937647E+00    -2.277534317E+00     4.214455534E+00
      779    -2.496960832E+00    -1.991259860E+00     4.282336736E+00
      780    -2.110827062E+00    -1.683328411E+00     5.421010862E-17
      781    -2.110827059E+00    -1.683328415E+00     7.142857143E-01
      782    -2.633066259E+00    -2.099800272E+00     5.421010862E-17
      783    -2.110827038E+00    -1.683328442E+00     5.000000000E+00
      784    -2.605149895E+00    -2.077537766E+00     5.000000000E+00
      785    -2.110827041E+00    -1.683328437E+00     4.285714286E+00
      786    -3.003859612E+00    -2.395498153E+00     4.772530460E+00
      787    -2.110827045E+00    -1.683328433E+00     3.571428571E+00
      788    -4.199989036E+00    -3.349379531E+00     4.090122621E+00
      789    -3.801279047E+00    -3.031418927E+00     4.317591381E+00
      790    -3.402569329E+00    -2.713458540E+00     4.545060921E+00
      791    -4.199516122E+00    -3.349002387E+00     3.272098097E+00
      792    -2.110827048E+00    -1.683328428E+00     2.857142857E+00
      793    -4.199510650E+00    -3.348998014E+00     2.454073573E+00
      794    -2.110827052E+00    -1.683328424E+00     2.142857143E+00
      795    -2.110827055E+00    -1.683328420E+00     1.428571429E+00
      796    -4.199783848E+00    -3.349215858E+00    -8.655456993E-12
      797    -4.199505177E+00    -3.348993642E+00     1.636049049E+00
      798    -4.199499705E+00    -3.348989270E+00     8.180245243E-01
      799    -3.155305455E+00    -2.516272134E+00     1.084202172E-16
      800    -3.677544651E+00    -2.932743996E+00     1.084202172E-16
      801    -3.520566035E+00    -2.032599781E+00     3.396222726E+00
      802    -3.204566912E+00    -1.850157601E+00     3.322077136E+00
      803    -3.626902402E+00    -2.093993105E+00     2.842902559E+00
      804    -3.651380536E+00    -2.108125557E+00     2.200101627E+00
      805    -3.674162572E+00    -2.121278764E+00     1.479045610E+00
      806    -3.127914103E+00    -1.805902085E+00     3.655407018E+00
      807    -2.739479235E+00    -1.581639108E+00     3.576820210E+00
      808    -2.971168938E+00    -1.715405215E+00     2.931846399E+00
      809    -2.988717249E+00    -1.725536729E+00     2.171074905E+00
      810    -3.005443166E+00    -1.735193435E+00     1.440432991E+00
      811    -3.007195077E+00    -1.736204894E+00     7.212663083E-01
      812    -3.678778621E+00    -2.123943834E+00     7.489569097E-01
      813    -4.339872131E+00    -2.505626350E+00     7.708308090E-01
      814    -4.340430389E+00    -2.505948669E+00     1.536512528E+00
      815    -4.310934906E+00    -2.488919451E+00     2.324295512E+00
      816    -4.239777508E+00    -2.447836717E+00     3.253276235E+00
      817    -3.760602991E+00    -2.171185186E+00     3.825602194E+00
      818    -3.258646434E+00    -1.881380436E+00     4.165444262E+00
      819    -2.803441217E+00    -1.618567582E+00     4.262977317E+00
      820    -2.338137949E+00    -1.349924574E+00     1.084202172E-16
      821    -2.338137946E+00    -1.349924579E+00     7.142857143E-01
      822    -3.003603462E+00    -1.734131267E+00     1.084202172E-16
      823    -2.338137928E+00    -1.349924610E+00     5.000000000E+00
      824    -2.885693459E+00    -1.666055944E+00     5.000000000E+00
      825    -2.338137931E+00    -1.349924605E+00     4.285714286E+00
      826    -3.414270090E+00    -1.971229801E+00     4.727756882E+00
      827    -2.338137934E+00    -1.349924600E+00     3.571428571E+00
      828    -5.000000000E+00    -2.886751346E+00     3.911027528E+00
      829    -4.471423353E+00    -2.581577517E+00     4.183270646E+00
      830    -3.942846721E+00    -2.276403659E+00     4.455513764E+00
      831    -4.999999987E+00    -2.886751369E+00     3.128822022E+00
      832    -2.338137937E+00    -1.349924595E+00     2.857142857E+00
      833    -4.999999990E+00    -2.886751363E+00     2.346616517E+00
      834    -2.338137940E+00    -1.349924590E+00     2.142857143E+00
      835    -2.338137943E+00    -1.349924585E+00     1.428571429E+00
      836    -5.000000000E+00    -2.886751346E+00     0.000000000E+00
      837    -4.999999993E+00    -2.886751357E+00     1.564411011E+00
      838    -4.999999997E+00    -2.886751352E+00     7.822055056E-01
      839    -3.669068975E+00    -2.118337960E+00     1.084202172E-16
      840    -4.334534487E+00    -2.502544653E+00     1.626303259E-16
      841    -3.629003179E+00    -1.424278825E+00     3.460986171E+00
      842    -3.332682639E+00    -1.307981582E+00     3.369688120E+00
      843    -3.717151887E+00    -1.458874638E+00     2.905782017E+00
      844    -3.740001297E+00    -1.467842365E+00     2.251285946E+00
      845    -3.761249273E+00    -1.476181574E+00     1.514683620E+00
      846    -3.269880573E+00    -1.283333591E+00     3.699611830E+00
      847    -2.897732271E+00    -1.137276144E+00     3.599283811E+00
      848    -3.104855420E+00    -1.218565984E+00     2.966043391E+00
      849    -3.120965782E+00    -1.224888828E+00     2.196425094E+00
      850    -3.136564079E+00    -1.231010701E+00     1.457912676E+00
      851    -3.137695041E+00    -1.231454564E+00     7.215264360E-01
      852    -3.765047980E+00    -1.477672450E+00     7.671869652E-01
      853    -4.382609281E+00    -1.720047400E+00     8.062339539E-01
      854    -4.383653615E+00    -1.720457278E+00     1.590560028E+00
      855    -4.356136618E+00    -1.709657660E+00     2.404172512E+00
      856    -4.295097471E+00    -1.685701569E+00     3.356386203E+00
      857    -3.864060401E+00    -1.516531991E+00     3.904223491E+00
      858    -3.400062393E+00    -1.334426195E+00     4.214603588E+00
      859    -2.972839967E+00    -1.166753749E+00     4.282395217E+00
      860    -2.513218698E+00    -9.863656536E-01     0.000000000E+00
      861    -2.513218695E+00    -9.863656593E-01     7.142857143E-01
      862    -3.134335167E+00    -1.230135904E+00     0.000000000E+00
      863    -2.513218682E+00    -9.863656939E-01     5.000000000E+00
      864    -3.101775400E+00    -1.217357184E+00     5.000000000E+00
      865    -2.513218684E+00    -9.863656882E-01     4.285714286E+00
      866    -3.576209767E+00    -1.403558950E+00     4.772665713E+00
      867    -2.513218686E+00    -9.863656824E-01     3.571428571E+00
      868    -4.999509759E+00    -1.962163027E+00     4.090655370E+00
      869    -4.525078500E+00    -1.775962481E+00     4.317997140E+00
      870    -4.050644133E+00    -1.589760715E+00     4.545331427E+00
      871    -4.999885843E+00    -1.962310621E+00     3.272524296E+00
      872    -2.513218689E+00    -9.863656766E-01     2.857142857E+00
      873    -4.999837120E+00    -1.962291491E+00     2.454393222E+00
      874    -2.513218691E+00    -9.863656709E-01     2.142857143E+00
      875    -2.513218693E+00    -9.863656651E-01     1.428571429E+00
      876    -4.997684576E+00    -1.961446657E+00    -5.491662897E-11
      877    -4.999788397E+00    -1.962272361E+00     1.636262148E+00
      878    -4.999739674E+00    -1.962253231E+00     8.181310739E-01
      879    -3.755451637E+00    -1.473906155E+00     5.421010862E-17
      880    -4.376568107E+00    -1.717676406E+00     5.421010862E-17
      881    -3.702801372E+00    -8.451402819E-01     3.499975891E+00
      882    -3.419822664E+00    -7.805522376E-01     3.398351190E+00
      883    -3.778564804E+00    -8.624327858E-01     2.943639314E+00
      884    -3.800339302E+00    -8.674026669E-01     2.282102050E+00
      885    -3.820604142E+00    -8.720279777E-01     1.536139892E+00
      886    -3.366465923E+00    -7.683739125E-01     3.726222717E+00
      887    -3.005312091E+00    -6.859429061E-01     3.612806691E+00
      888    -3.195718336E+00    -7.294018834E-01     2.986632036E+00
      889    -3.210874208E+00    -7.328611052E-01     2.211687465E+00
      890    -3.225751496E+00    -7.362567424E-01     1.468436520E+00
      891    -3.227270324E+00    -7.366033982E-01     7.216830488E-01
      892    -3.824670126E+00    -8.729560049E-01     7.781625786E-01
      893    -4.412739320E+00    -1.007178962E+00     8.275488222E-01
      894    -4.413276730E+00    -1.007301629E+00     1.623099943E+00
      895    -4.387038836E+00    -1.001313009E+00     2.452263374E+00
      896    -4.332832695E+00    -9.889408194E-01     3.418463844E+00
      897    -3.934542460E+00    -8.980336771E-01     3.951554698E+00
      898    -3.496289634E+00    -7.980053321E-01     4.244197047E+00
      899    -3.087981771E+00    -7.048117274E-01     4.294084613E+00
      900    -2.632158294E+00    -6.007729541E-01     5.421010862E-17
      901    -2.632158292E+00    -6.007729603E-01     7.142857143E-01
      902    -3.224075066E+00    -7.358740947E-01     5.421010862E-17
      903    -2.632158284E+00    -6.007729974E-01     5.000000000E+00
      904    -3.248568805E+00    -7.414646764E-01     5.000000000E+00
      905    -2.632158285E+00    -6.007729912E-01     4.285714286E+00
      906    -3.686365998E+00    -8.413890269E-01     4.799700414E+00
      907    -2.632158287E+00    -6.007729850E-01     3.571428571E+00
      908    -4.999757886E+00    -1.141162149E+00     4.198802366E+00
      909    -4.561960384E+00    -1.041237728E+00     4.399101242E+00
      910    -4.124163191E+00    -9.413133775E-01     4.599400828E+00
      911    -4.999988680E+00    -1.141214819E+00     3.359041893E+00
      912    -2.632158288E+00    -6.007729788E-01     2.857142857E+00
      913    -4.999989348E+00    -1.141214964E+00     2.519281420E+00
      914    -2.632158289E+00    -6.007729726E-01     2.142857143E+00
      915    -2.632158291E+00    -6.007729665E-01     1.428571429E+00
      916    -4.999825381E+00    -1.141177516E+00    -6.966324219E-12
      917    -4.999990017E+00    -1.141215109E+00     1.679520946E+00
      918    -4.999990685E+00    -1.141215254E+00     8.397604732E-01
      919    -3.815991837E+00    -8.709752352E-01     5.421010862E-17
      920    -4.407908609E+00    -1.006076376E+00     1.084202172E-16
      921    -3.740109916E+00    -2.802825224E-01     3.518374387E+00
      922    -3.463881267E+00    -2.595820460E-01     3.411876862E+00
      923    -3.809593387E+00    -2.854895837E-01     2.961502721E+00
      924    -3.830814695E+00    -2.870798949E-01     2.296642989E+00
      925    -3.850565114E+00    -2.885599774E-01     1.546264284E+00
      926    -3.415310345E+00    -2.559421615E-01     3.738780626E+00
      927    -3.059712761E+00    -2.292938055E-01     3.619188255E+00
      928    -3.241653429E+00    -2.429283680E-01     2.996347047E+00
      929    -3.256319159E+00    -2.440274055E-01     2.218889193E+00
      930    -3.270819109E+00    -2.451140199E-01     1.473402318E+00
      931    -3.272319274E+00    -2.452264349E-01     7.217569484E-01
      932    -3.854548055E+00    -2.888584507E-01     7.833415499E-01
      933    -4.427682826E+00    -3.318089647E-01     8.376064917E-01
      934    -4.428186057E+00    -3.318466838E-01     1.638454282E+00
      935    -4.402614955E+00    -3.299304022E-01     2.474955609E+00
      936    -4.351889291E+00    -3.261290480E-01     3.447756262E+00
      937    -3.970181094E+00    -2.975239778E-01     3.973889939E+00
      938    -3.544953682E+00    -2.656575912E-01     4.258162457E+00
      939    -3.146205710E+00    -2.357755621E-01     4.299600941E+00
      940    -2.692299823E+00    -2.017599795E-01    -5.421010862E-17
      941    -2.692299822E+00    -2.017599859E-01     7.142857143E-01
      942    -3.269205348E+00    -2.449930719E-01    -5.421010862E-17
      943    -2.692299819E+00    -2.017600243E-01     5.000000000E+00
      944    -3.322794551E+00    -2.490090726E-01     5.000000000E+00
      945    -2.692299820E+00    -2.017600179E-01     4.285714286E+00
      946    -3.742072606E+00    -2.804296174E-01     4.812458324E+00
      947    -2.692299820E+00    -2.017600115E-01     3.571428571E+00
      948    -4.999906544E+00    -3.746912349E-01     4.249832789E+00
      949    -4.580628716E+00    -3.432707070E-01     4.437374973E+00
      950    -4.161350661E+00    -3.118501622E-01     4.624916648E+00
      951    -4.999999495E+00    -3.746981929E-01     3.399866231E+00
      952    -2.692299821E+00    -2.017600051E-01     2.857142857E+00
      953    -4.999999512E+00    -3.746981865E-01     2.549899673E+00
      954    -2.692299821E+00    -2.017599987E-01     2.142857143E+00
      955    -2.692299822E+00    -2.017599923E-01     1.428571429E+00
      956    -4.999921922E+00    -3.746923489E-01    -9.387510300E-12
      957    -4.999999530E+00    -3.746981802E-01     1.699933116E+00
      958    -4.999999547E+00    -3.746981738E-01     8.499665578E-01
      959    -3.846110872E+00    -2.882261642E-01    -1.084202172E-16
      960    -4.423016397E+00    -3.314592566E-01    -5.421010862E-17
      961    -3.740165539E+00     2.802866274E-01     3.518313382E+00
      962    -3.463931171E+00     2.595857242E-01     3.411832025E+00
      963    -3.809594363E+00     2.854896035E-01     2.961443424E+00
      964    -3.830815663E+00     2.870799261E-01     2.296594721E+00
      965    -3.850567918E+00     2.885601597E-01     1.546230676E+00
      966    -3.415403287E+00     2.559490592E-01     3.738739055E+00
      967    -3.059759993E+00     2.292972798E-01     3.619167130E+00
      968    -3.241655237E+00     2.429284495E-01     2.996314800E+00
      969    -3.256319640E+00     2.440274016E-01     2.218865287E+00
      970    -3.270821905E+00     2.451142029E-01     1.473385835E+00
      971    -3.272397246E+00     2.452322651E-01     7.217567031E-01
      972    -3.854627193E+00     2.888643672E-01     7.833243584E-01
      973    -4.427761829E+00     3.318148700E-01     8.375731055E-01
      974    -4.428187485E+00     3.318467613E-01     1.638403314E+00
      975    -4.402616415E+00     3.299304670E-01     2.474880282E+00
      976    -4.351917171E+00     3.261310751E-01     3.447659060E+00
      977    -3.970289849E+00     2.975320563E-01     3.973815932E+00
      978    -3.545057041E+00     2.656652601E-01     4.258116228E+00
      979    -3.146246540E+00     2.357785444E-01     4.299582680E+00
      980    -2.692299823E+00     2.017599795E-01    -1.084202172E-16
      981    -2.692299823E+00     2.017599731E-01     7.142857143E-01
      982    -3.269284027E+00     2.449989681E-01    -1.626303259E-16
      983    -2.692299826E+00     2.017599347E-01     5.000000000E+00
      984    -3.322794558E+00     2.490089830E-01     5.000000000E+00
      985    -2.692299826E+00     2.017599411E-01     4.285714286E+00
      986    -3.742167029E+00     2.804366067E-01     4.812416092E+00
      987    -2.692299825E+00     2.017599475E-01     3.571428571E+00
      988    -5.000284010E+00     3.747194454E-01     4.249663394E+00
      989    -4.580911972E+00     3.432918541E-01     4.437248276E+00
      990    -4.161539500E+00     3.118642304E-01     4.624832184E+00
      991    -5.000001533E+00     3.746982844E-01     3.399730716E+00
      992    -2.692299825E+00     2.017599539E-01     2.857142857E+00
      993    -5.000001480E+00     3.746982881E-01     2.549798037E+00
      994    -2.692299824E+00     2.017599603E-01     2.142857143E+00
      995    -2.692299824E+00     2.017599667E-01     1.428571429E+00
      996    -5.000236638E+00     3.747159336E-01    -2.845152499E-11
      997    -5.000001427E+00     3.746982917E-01     1.699865358E+00
      998    -5.000001374E+00     3.746982954E-01     8.499326789E-01
      999    -3.846268230E+00     2.882379566E-01    -5.421010862E-17
     1000    -4.423252434E+00     3.314769451E-01    -1.084202172E-16
     1001    -3.702896293E+00     8.451618832E-01     3.499876847E+00
     1002    -3.419906008E+00     7.805711984E-01     3.398278397E+00
     1003    -3.778578019E+00     8.624357484E-01     2.943543038E+00
     1004    -3.800352149E+00     8.674055577E-01     2.282023682E+00
     1005    -3.820618817E+00     8.720312990E-01     1.536085326E+00
     1006    -3.366613443E+00     7.684075153E-01     3.726155230E+00
     1007    -3.005387063E+00     6.859599523E-01     3.612772396E+00
     1008    -3.195726981E+00     7.294038021E-01     2.986579680E+00
     1009    -3.210880577E+00     7.328625185E-01     2.211648651E+00
     1010    -3.225760617E+00     7.362587973E-01     1.468409756E+00
     1011    -3.227375809E+00     7.366274612E-01     7.216826505E-01
     1012    -3.824782673E+00     8.729816789E-01     7.781346664E-01
     1013    -4.412857139E+00     1.007205838E+00     8.274946161E-01
     1014    -4.413295164E+00     1.007305807E+00     1.623017191E+00
     1015    -4.387058274E+00     1.001317401E+00     2.452141074E+00
     1016    -4.332892502E+00     9.889544078E-01     3.418306028E+00
     1017    -3.934719735E+00     8.980740672E-01     3.951434548E+00
     1018    -3.496453689E+00     7.980426995E-01     4.244121996E+00
     1019    -3.088046583E+00     7.048264421E-01     4.294054968E+00
     1020    -2.632158294E+00     6.007729541E-01    -1.626303259E-16
     1021    -2.632158295E+00     6.007729479E-01     7.142857143E-01
     1022    -3.224181425E+00     7.358983704E-01    -1.084202172E-16
     1023    -2.632158304E+00     6.007729108E-01     5.000000000E+00
     1024    -3.248568825E+00     7.414645898E-01     5.000000000E+00
     1025    -2.632158302E+00     6.007729170E-01     4.285714286E+00
     1026    -3.686515872E+00     8.414231474E-01     4.799631852E+00
     1027    -2.632158301E+00     6.007729232E-01     3.571428571E+00
     1028    -5.000356983E+00     1.141298813E+00     4.198527336E+00
     1029    -4.562409968E+00     1.041340263E+00     4.398895557E+00
     1030    -4.124462920E+00     9.413817050E-01     4.599263705E+00
     1031    -5.000016625E+00     1.141221136E+00     3.358821869E+00
     1032    -2.632158299E+00     6.007729294E-01     2.857142857E+00
     1033    -5.000015573E+00     1.141220904E+00     2.519116402E+00
     1034    -2.632158298E+00     6.007729355E-01     2.142857143E+00
     1035    -2.632158296E+00     6.007729417E-01     1.428571429E+00
     1036    -5.000250818E+00     1.141274619E+00    -1.000653553E-11
     1037    -5.000014522E+00     1.141220671E+00     1.679410934E+00
     1038    -5.000013471E+00     1.141220439E+00     8.397054672E-01
     1039    -3.816204556E+00     8.710237868E-01    -1.626303259E-16
     1040    -4.408227687E+00     1.006149203E+00    -1.084202172E-16
     1041    -3.629220323E+00     1.424363983E+00     3.460790066E+00
     1042    -3.332863690E+00     1.308052577E+00     3.369543993E+00
     1043    -3.717253375E+00     1.458914415E+00     2.905591380E+00
     1044    -3.740119852E+00     1.467888852E+00     2.251130766E+00
     1045    -3.761403097E+00     1.476241917E+00     1.514575574E+00
     1046    -3.270159430E+00     1.283442965E+00     3.699478221E+00
     1047    -2.897873989E+00     1.137331697E+00     3.599215915E+00
     1048    -3.104904583E+00     1.218585224E+00     2.965939719E+00
     1049    -3.121024529E+00     1.224911843E+00     2.196348238E+00
     1050    -3.136651777E+00     1.231045093E+00     1.457859681E+00
     1051    -3.138368230E+00     1.231718758E+00     7.215256473E-01
     1052    -3.765796600E+00     1.477966247E+00     7.671316958E-01
     1053    -4.383423127E+00     1.720366796E+00     8.061266196E-01
     1054    -4.383862551E+00     1.720539250E+00     1.590396168E+00
     1055    -4.356311201E+00     1.709726134E+00     2.403930344E+00
     1056    -4.295298987E+00     1.685780596E+00     3.356073715E+00
     1057    -3.864421984E+00     1.516673829E+00     3.903985608E+00
     1058    -3.400372505E+00     1.334547826E+00     4.214455005E+00
     1059    -2.972962477E+00     1.166801751E+00     4.282336527E+00
     1060    -2.513218698E+00     9.863656536E-01    -1.084202172E-16
     1061    -2.513218700E+00     9.863656478E-01     7.142857143E-01
     1062    -3.135013508E+00     1.230402134E+00    -1.626303259E-16
     1063    -2.513218714E+00     9.863656133E-01     5.000000000E+00
     1064    -3.101775432E+00     1.217357103E+00     5.000000000E+00
     1065    -2.513218711E+00     9.863656190E-01     4.285714286E+00
     1066    -3.576493071E+00     1.403670050E+00     4.772529977E+00
     1067    -2.513218709E+00     9.863656248E-01     3.571428571E+00
     1068    -5.000642200E+00     1.962607401E+00     4.090110779E+00
     1069    -4.525928351E+00     1.776295942E+00     4.317589931E+00
     1070    -4.051210711E+00     1.589982996E+00     4.545059954E+00
     1071    -5.000079197E+00     1.962386446E+00     3.272088623E+00
     1072    -2.513218707E+00     9.863656305E-01     2.857142857E+00
     1073    -5.000072676E+00     1.962383894E+00     2.454066467E+00
     1074    -2.513218705E+00     9.863656363E-01     2.142857143E+00
     1075    -2.513218702E+00     9.863656421E-01     1.428571429E+00
     1076    -5.000397939E+00     1.962511574E+00    -9.438413592E-12
     1077    -5.000066156E+00     1.962381343E+00     1.636044311E+00
     1078    -5.000059635E+00     1.962378791E+00     8.180221557E-01
     1079    -3.756808319E+00     1.474438614E+00    -1.626303259E-16
     1080    -4.378603129E+00     1.718475094E+00    -1.626303259E-16
     1081    -3.520566064E+00     2.032599732E+00     3.396222726E+00
     1082    -3.204566940E+00     1.850157553E+00     3.322077136E+00
     1083    -3.626902425E+00     2.093993064E+00     2.842902559E+00
     1084    -3.651380554E+00     2.108125525E+00     2.200101627E+00
     1085    -3.674162585E+00     2.121278743E+00     1.479045610E+00
     1086    -3.127914133E+00     1.805902032E+00     3.655407018E+00
     1087    -2.739479265E+00     1.581639056E+00     3.576820210E+00
     1088    -2.971168963E+00     1.715405172E+00     2.931846399E+00
     1089    -2.988717267E+00     1.725536698E+00     2.171074905E+00
     1090    -3.005443178E+00     1.735193414E+00     1.440432991E+00
     1091    -3.007195083E+00     1.736204883E+00     7.212663083E-01
     1092    -3.678778627E+00     2.123943824E+00     7.489569097E-01
     1093    -4.339872137E+00     2.505626339E+00     7.708308090E-01
     1094    -4.340430402E+00     2.505948646E+00     1.536512528E+00
     1095    -4.310934925E+00     2.488919417E+00     2.324295512E+00
     1096    -4.239777535E+00     2.447836670E+00     3.253276235E+00
     1097    -3.760603023E+00     2.171185131E+00     3.825602194E+00
     1098    -3.258646469E+00     1.881380376E+00     4.165444262E+00
     1099    -2.803441252E+00     1.618567521E+00     4.262977317E+00
     1100    -2.338137949E+00     1.349924574E+00    -1.084202172E-16
     1101    -2.338137952E+00     1.349924569E+00     7.142857143E-01
     1102    -3.003603462E+00     1.734131267E+00    -1.084202172E-16
     1103    -2.338137970E+00     1.349924538E+00     5.000000000E+00
     1104    -2.885693501E+00     1.666055871E+00     5.000000000E+00
     1105    -2.338137967E+00     1.349924543E+00     4.285714286E+00
     1106    -3.414270130E+00     1.971229733E+00     4.727756882E+00
     1107    -2.338137964E+00     1.349924548E+00     3.571428571E+00
     1108    -5.000000000E+00     2.886751346E+00     3.911027528E+00
     1109    -4.471423387E+00     2.581577456E+00     4.183270646E+00
     1110    -3.942846759E+00     2.276403594E+00     4.455513764E+00
     1111    -5.000000013E+00     2.886751323E+00     3.128822022E+00
     1112    -2.338137961E+00     1.349924554E+00     2.857142857E+00
     1113    -5.000000010E+00     2.886751329E+00     2.346616517E+00
     1114    -2.338137958E+00     1.349924559E+00     2.142857143E+00
     1115    -2.338137955E+00     1.349924564E+00     1.428571429E+00
     1116    -5.000000000E+00     2.886751346E+00     0.000000000E+00
     1117    -5.000000007E+00     2.886751335E+00     1.564411011E+00
     1118    -5.000000003E+00     2.886751340E+00     7.822055056E-01
     1119    -3.669068975E+00     2.118337960E+00    -1.084202172E-16
     1120    -4.334534487E+00     2.502544653E+00    -1.626303259E-16
     1121    -3.047962675E+00     2.430669088E+00     3.460989324E+00
     1122    -2.799086094E+00     2.232196639E+00     3.369690173E+00
     1123    -3.121998440E+00     2.489710647E+00     2.905786638E+00
     1124    -3.141189425E+00     2.505014953E+00     2.251289708E+00
     1125    -3.159035380E+00     2.519246634E+00     1.514686239E+00
     1126    -2.746338834E+00     2.190132099E+00     3.699612367E+00
     1127    -2.433775687E+00     1.940871308E+00     3.599284084E+00
     1128    -2.607736794E+00     2.079600668E+00     2.966045866E+00
     1129    -2.621267732E+00     2.090391239E+00     2.196426957E+00
     1130    -2.634368579E+00     2.100838823E+00     1.457913960E+00
     1131    -2.635318457E+00     2.101596333E+00     7.215264551E-01
     1132    -3.162225870E+00     2.521790973E+00     7.671883050E-01
     1133    -3.680909385E+00     2.935427273E+00     8.062365559E-01
     1134    -3.681786516E+00     2.936126754E+00     1.590564000E+00
     1135    -3.658675274E+00     2.917696145E+00     2.404178383E+00
     1136    -3.607408847E+00     2.876812524E+00     3.356393005E+00
     1137    -3.245384330E+00     2.588107601E+00     3.904226108E+00
     1138    -2.855677131E+00     2.277326477E+00     4.214604186E+00
     1139    -2.496857954E+00     1.991177731E+00     4.282395453E+00
     1140    -2.110827062E+00     1.683328411E+00    -1.626303259E-16
     1141    -2.110827066E+00     1.683328406E+00     7.142857143E-01
     1142    -2.632496527E+00     2.099345927E+00    -1.084202172E-16
     1143    -2.110827087E+00     1.683328380E+00     5.000000000E+00
     1144    -2.605149945E+00     2.077537704E+00     5.000000000E+00
     1145    -2.110827084E+00     1.683328384E+00     4.285714286E+00
     1146    -3.003621630E+00     2.395308272E+00     4.772666259E+00
     1147    -2.110827080E+00     1.683328389E+00     3.571428571E+00
     1148    -4.199037920E+00     3.348620959E+00     4.090668571E+00
     1149    -3.800565002E+00     3.030849408E+00     4.317998778E+00
     1150    -3.402093316E+00     2.713078840E+00     4.545332519E+00
     1151    -4.199353769E+00     3.348872848E+00     3.272534857E+00
     1152    -2.110827076E+00     1.683328393E+00     2.857142857E+00
     1153    -4.199312840E+00     3.348840217E+00     2.454401143E+00
     1154    -2.110827073E+00     1.683328397E+00     2.142857143E+00
     1155    -2.110827069E+00     1.683328402E+00     1.428571429E+00
     1156    -4.197504921E+00     3.347398475E+00    -5.036184143E-11
     1157    -4.199271912E+00     3.348807586E+00     1.636267429E+00
     1158    -4.199230984E+00     3.348774955E+00     8.181337142E-01
     1159    -3.154165992E+00     2.515363443E+00    -1.626303259E-16
     1160    -3.675835457E+00     2.931380959E+00    -1.626303259E-16
     1161    -2.583313777E+00     2.784150067E+00     3.499974960E+00
     1162    -2.385889522E+00     2.571377325E+00     3.398350584E+00
     1163    -2.636171100E+00     2.841116719E+00     2.943637947E+00
     1164    -2.651362393E+00     2.857489047E+00     2.282100938E+00
     1165    -2.665500451E+00     2.872726257E+00     1.536139117E+00
     1166    -2.348664523E+00     2.531258314E+00     3.726222560E+00
     1167    -2.096700145E+00     2.259705298E+00     3.612806611E+00
     1168    -2.229539729E+00     2.402872327E+00     2.986631305E+00
     1169    -2.240113436E+00     2.414268082E+00     2.211686914E+00
     1170    -2.250492789E+00     2.425454372E+00     1.468436140E+00
     1171    -2.251552417E+00     2.426596387E+00     7.216830432E-01
     1172    -2.668337138E+00     2.875783488E+00     7.781621823E-01
     1173    -3.078612226E+00     3.317954871E+00     8.275480526E-01
     1174    -3.078987162E+00     3.318358948E+00     1.623098768E+00
     1175    -3.060681917E+00     3.298630576E+00     2.452261638E+00
     1176    -3.022864284E+00     3.257872850E+00     3.418461833E+00
     1177    -2.744991481E+00     2.958397187E+00     3.951553927E+00
     1178    -2.439237967E+00     2.628873265E+00     4.244196873E+00
     1179    -2.154375846E+00     2.321864913E+00     4.294084545E+00
     1180    -1.836363787E+00     1.979129472E+00    -2.168404345E-16
     1181    -1.836363791E+00     1.979129468E+00     7.142857143E-01
     1182    -2.249323193E+00     2.424193863E+00    -2.168404345E-16
     1183    -1.836363814E+00     1.979129447E+00     5.000000000E+00
     1184    -2.266411643E+00     2.442610778E+00     5.000000000E+00
     1185    -1.836363810E+00     1.979129450E+00     4.285714286E+00
     1186    -2.571847508E+00     2.771792354E+00     4.799700255E+00
     1187    -1.836363806E+00     1.979129454E+00     3.571428571E+00
     1188    -3.488154325E+00     3.759336245E+00     4.198798461E+00
     1189    -3.182719237E+00     3.430155506E+00     4.399100766E+00
     1190    -2.877283372E+00     3.100973930E+00     4.599400510E+00
     1191    -3.488315359E+00     3.759509808E+00     3.359038769E+00
     1192    -1.836363803E+00     1.979129458E+00     2.857142857E+00
     1193    -3.488315820E+00     3.759510314E+00     2.519279077E+00
     1194    -1.836363799E+00     1.979129461E+00     2.142857143E+00
     1195    -1.836363795E+00     1.979129465E+00     1.428571429E+00
     1196    -3.488201410E+00     3.759387036E+00    -5.851113864E-12
     1197    -3.488316281E+00     3.759510820E+00     1.679519384E+00
     1198    -3.488316742E+00     3.759511326E+00     8.397596922E-01
     1199    -2.662282598E+00     2.869258254E+00    -2.168404345E-16
     1200    -3.075242004E+00     3.314322645E+00    -2.710505431E-16
     1201    -2.112786714E+00     3.098888910E+00     3.518374567E+00
     1202    -1.956745254E+00     2.870018125E+00     3.411876979E+00
     1203    -2.152037920E+00     3.156459863E+00     2.961502985E+00
     1204    -2.164025825E+00     3.174042898E+00     2.296643204E+00
     1205    -2.175182825E+00     3.190407220E+00     1.546264433E+00
     1206    -1.929307543E+00     2.829774390E+00     3.738780655E+00
     1207    -1.728430616E+00     2.535142053E+00     3.619188270E+00
     1208    -1.831208847E+00     2.685890039E+00     2.996347188E+00
     1209    -1.839493508E+00     2.698041414E+00     2.218889300E+00
     1210    -1.847684520E+00     2.710055431E+00     1.473402392E+00
     1211    -1.848531958E+00     2.711298404E+00     7.217569495E-01
     1212    -2.177432782E+00     3.193707311E+00     7.833416265E-01
     1213    -2.501196404E+00     3.668581326E+00     8.376066403E-01
     1214    -2.501480684E+00     3.668998278E+00     1.638454509E+00
     1215    -2.487035583E+00     3.647811196E+00     2.474955944E+00
     1216    -2.458380669E+00     3.605782145E+00     3.447756650E+00
     1217    -2.242753820E+00     3.289515637E+00     3.973890087E+00
     1218    -2.002543015E+00     2.937191093E+00     4.258162490E+00
     1219    -1.777290458E+00     2.606806271E+00     4.299600954E+00
     1220    -1.520879179E+00     2.230720051E+00    -2.710505431E-16
     1221    -1.520879183E+00     2.230720049E+00     7.142857143E-01
     1222    -1.846772898E+00     2.708718345E+00    -2.710505431E-16
     1223    -1.520879208E+00     2.230720032E+00     5.000000000E+00
     1224    -1.877045449E+00     2.753119962E+00     5.000000000E+00
     1225    -1.520879204E+00     2.230720035E+00     4.285714286E+00
     1226    -2.113895430E+00     3.100515081E+00     4.812458354E+00
     1227    -1.520879199E+00     2.230720038E+00     3.571428571E+00
     1228    -2.824445402E+00     4.142700485E+00     4.249833543E+00
     1229    -2.587595390E+00     3.795305319E+00     4.437375062E+00
     1230    -2.350745410E+00     3.447910200E+00     4.624916708E+00
     1231    -2.824497895E+00     4.142777489E+00     3.399866834E+00
     1232    -1.520879195E+00     2.230720040E+00     2.857142857E+00
     1233    -2.824497900E+00     4.142777506E+00     2.549900126E+00
     1234    -1.520879191E+00     2.230720043E+00     2.142857143E+00
     1235    -1.520879187E+00     2.230720046E+00     1.428571429E+00
     1236    -2.824454054E+00     4.142713227E+00    -7.201541880E-12
     1237    -2.824497905E+00     4.142777523E+00     1.699933417E+00
     1238    -2.824497909E+00     4.142777540E+00     8.499667086E-01
     1239    -2.172666616E+00     3.186716639E+00    -3.252606517E-16
     1240    -2.498560335E+00     3.664714933E+00    -2.710505431E-16
     1241    -1.627347390E+00     3.379221625E+00     3.518313680E+00
     1242    -1.507157717E+00     3.129645199E+00     3.411832220E+00
     1243    -1.657555925E+00     3.441950302E+00     2.961443857E+00
     1244    -1.666789317E+00     3.461123648E+00     2.296595074E+00
     1245    -1.675383526E+00     3.478969717E+00     1.546230922E+00
     1246    -1.486043194E+00     3.085800435E+00     3.738739109E+00
     1247    -1.331302692E+00     2.764478472E+00     3.619167158E+00
     1248    -1.410445402E+00     2.928820012E+00     2.996315032E+00
     1249    -1.416825886E+00     2.942069235E+00     2.218865462E+00
     1250    -1.423135823E+00     2.955171965E+00     1.473385955E+00
     1251    -1.423821250E+00     2.956595280E+00     7.217567049E-01
     1252    -1.677149714E+00     3.482637256E+00     7.833244842E-01
     1253    -1.926520806E+00     4.000461662E+00     8.375733496E-01
     1254    -1.926706013E+00     4.000846238E+00     1.638403686E+00
     1255    -1.915580036E+00     3.977742895E+00     2.474880833E+00
     1256    -1.893520766E+00     3.931936336E+00     3.447659699E+00
     1257    -1.727474535E+00     3.587137776E+00     3.973816182E+00
     1258    -1.542455587E+00     3.202941969E+00     4.258116288E+00
     1259    -1.368933027E+00     2.842618660E+00     4.299582704E+00
     1260    -1.171420644E+00     2.432480031E+00    -2.168404345E-16
     1261    -1.171420648E+00     2.432480029E+00     7.142857143E-01
     1262    -1.422466683E+00     2.953782503E+00    -2.168404345E-16
     1263    -1.171420672E+00     2.432480017E+00     5.000000000E+00
     1264    -1.445749162E+00     3.002128996E+00     5.000000000E+00
     1265    -1.171420668E+00     2.432480019E+00     4.285714286E+00
     1266    -1.628218224E+00     3.381029910E+00     4.812416147E+00
     1267    -1.171420664E+00     2.432480021E+00     3.571428571E+00
     1268    -2.175625419E+00     4.517732672E+00     4.249664633E+00
     1269    -1.993156348E+00     4.138831739E+00     4.437248441E+00
     1270    -1.810687286E+00     3.759930825E+00     4.624832294E+00
     1271    -2.175502525E+00     4.517477493E+00     3.399731706E+00
     1272    -1.171420660E+00     2.432480023E+00     2.857142857E+00
     1273    -2.175502498E+00     4.517477448E+00     2.549798780E+00
     1274    -1.171420656E+00     2.432480025E+00     2.142857143E+00
     1275    -1.171420652E+00     2.432480027E+00     1.428571429E+00
     1276    -2.175604801E+00     4.517689920E+00    -1.984968179E-11
     1277    -2.175502470E+00     4.517477403E+00     1.699865853E+00
     1278    -2.175502443E+00     4.517477358E+00     8.499329266E-01
     1279    -1.673512722E+00     3.475084975E+00    -2.710505431E-16
     1280    -1.924558762E+00     3.996387448E+00    -3.252606517E-16
     1281    -1.119516617E+00     3.629383665E+00     3.499874743E+00
     1282    -1.033958635E+00     3.352011501E+00     3.398277026E+00
     1283    -1.142397733E+00     3.703562433E+00     2.943539960E+00
     1284    -1.148980820E+00     3.724904287E+00     2.282021176E+00
     1285    -1.155108146E+00     3.744768605E+00     1.536083581E+00
     1286    -1.017846522E+00     3.299777308E+00     3.726154866E+00
     1287    -9.086348979E-01     2.945721921E+00     3.612772211E+00
     1288    -9.661812625E-01     3.132282665E+00     2.986578032E+00
     1289    -9.707627231E-01     3.147135410E+00     2.211647410E+00
     1290    -9.752614817E-01     3.161720041E+00     1.468408901E+00
     1291    -9.757498076E-01     3.163303169E+00     7.216826378E-01
     1292    -1.156367023E+00     3.748849799E+00     7.781337740E-01
     1293    -1.334162725E+00     4.325249306E+00     8.274928831E-01
     1294    -1.334295159E+00     4.325678633E+00     1.623014545E+00
     1295    -1.326362824E+00     4.299962619E+00     2.452137164E+00
     1296    -1.309986670E+00     4.246872412E+00     3.418301495E+00
     1297    -1.189605179E+00     3.856605195E+00     3.951432798E+00
     1298    -1.057101848E+00     3.427039939E+00     4.244121591E+00
     1299    -9.336257797E-01     3.026740357E+00     4.294054808E+00
     1300    -7.957945067E-01     2.579902426E+00    -2.168404345E-16
     1301    -7.957945105E-01     2.579902425E+00     7.142857143E-01
     1302    -9.747840289E-01     3.160172205E+00    -2.710505431E-16
     1303    -7.957945334E-01     2.579902418E+00     5.000000000E+00
     1304    -9.821572259E-01     3.184075428E+00     5.000000000E+00
     1305    -7.957945296E-01     2.579902419E+00     4.285714286E+00
     1306    -1.114564345E+00     3.613328768E+00     4.799631483E+00
     1307    -7.957945258E-01     2.579902420E+00     3.571428571E+00
     1308    -1.511784729E+00     4.901085638E+00     4.198518543E+00
     1309    -1.379378582E+00     4.471835447E+00     4.398894448E+00
     1310    -1.246971463E+00     4.042582107E+00     4.599262965E+00
     1311    -1.511681808E+00     4.900751992E+00     3.358814834E+00
     1312    -7.957945220E-01     2.579902421E+00     2.857142857E+00
     1313    -1.511681486E+00     4.900750963E+00     2.519111126E+00
     1314    -7.957945181E-01     2.579902423E+00     2.142857143E+00
     1315    -7.957945143E-01     2.579902424E+00     1.428571429E+00
     1316    -1.511752596E+00     4.900981543E+00    -6.309460333E-12
     1317    -1.511681164E+00     4.900749935E+00     1.679407417E+00
     1318    -1.511680842E+00     4.900748906E+00     8.397037085E-01
     1319    -1.153773551E+00     3.740441985E+00    -3.252606517E-16
     1320    -1.332763073E+00     4.320711764E+00    -3.252606517E-16
     1321    -5.810746615E-01     3.855178369E+00     3.460792890E+00
     1322    -5.336249874E-01     3.540370354E+00     3.369545831E+00
     1323    -5.951697321E-01     3.948693071E+00     2.905595525E+00
     1324    -5.988308824E-01     3.972983238E+00     2.251134140E+00
     1325    -6.022385409E-01     3.995591598E+00     1.514577923E+00
     1326    -5.235853305E-01     3.473761572E+00     3.699478696E+00
     1327    -4.639787581E-01     3.078297807E+00     3.599216157E+00
     1328    -4.971265182E-01     3.298218846E+00     2.965941939E+00
     1329    -4.997074828E-01     3.315342453E+00     2.196349909E+00
     1330    -5.022095593E-01     3.331942670E+00     1.457860833E+00
     1331    -5.024843773E-01     3.333765993E+00     7.215256645E-01
     1332    -6.029419816E-01     4.000258647E+00     7.671328975E-01
     1333    -7.018302118E-01     4.656339185E+00     8.061289533E-01
     1334    -7.019005717E-01     4.656805967E+00     1.590399731E+00
     1335    -6.974893268E-01     4.627539243E+00     2.403935609E+00
     1336    -6.877206155E-01     4.562728046E+00     3.356079813E+00
     1337    -6.187327278E-01     4.105023300E+00     3.903987947E+00
     1338    -5.444337402E-01     3.612081716E+00     4.214455533E+00
     1339    -4.760011955E-01     3.158061445E+00     4.282336736E+00
     1340    -4.023916354E-01     2.669694064E+00    -1.626303259E-16
     1341    -4.023916389E-01     2.669694064E+00     7.142857143E-01
     1342    -5.019472495E-01     3.330202406E+00    -2.168404345E-16
     1343    -4.023916596E-01     2.669694061E+00     5.000000000E+00
     1344    -4.966255202E-01     3.294894875E+00     5.000000000E+00
     1345    -4.023916562E-01     2.669694061E+00     4.285714286E+00
     1346    -5.726324351E-01     3.799167814E+00     4.772530460E+00
     1347    -4.023916527E-01     2.669694062E+00     3.571428571E+00
     1348    -8.006532314E-01     5.311986973E+00     4.090122619E+00
     1349    -7.246462647E-01     4.807713690E+00     4.317591380E+00
     1350    -6.486393499E-01     4.303440752E+00     4.545060920E+00
     1351    -8.005630739E-01     5.311388844E+00     3.272098095E+00
     1352    -4.023916493E-01     2.669694062E+00     2.857142857E+00
     1353    -8.005620259E-01     5.311381917E+00     2.454073572E+00
     1354    -4.023916458E-01     2.669694063E+00     2.142857143E+00
     1355    -4.023916424E-01     2.669694063E+00     1.428571429E+00
     1356    -8.006140916E-01     5.311727431E+00    -5.331672603E-12
     1357    -8.005609778E-01     5.311374991E+00     1.636049048E+00
     1358    -8.005599297E-01     5.311368064E+00     8.180245239E-01
     1359    -6.015028635E-01     3.990710748E+00    -2.710505431E-16
     1360    -7.010584776E-01     4.651219090E+00    -2.710505431E-16
     1361    -1.418336390E-08     4.065199513E+00     3.396222726E+00
     1362    -1.387371513E-08     3.700315155E+00     3.322077136E+00
     1363    -1.187257959E-08     4.187986170E+00     2.842902559E+00
     1364    -9.188104081E-09     4.216251081E+00     2.200101627E+00
     1365    -6.176818424E-09     4.242557508E+00     1.479045610E+00
     1366    -1.526577254E-08     3.611804116E+00     3.655407018E+00
     1367    -1.493757611E-08     3.163278165E+00     3.576820210E+00
     1368    -1.224402669E-08     3.430810387E+00     2.931846399E+00
     1369    -9.066880603E-09     3.451073426E+00     2.171074905E+00
     1370    -6.015562152E-09     3.470386848E+00     1.440432991E+00
     1371    -3.012166713E-09     3.472409777E+00     7.212663083E-01
     1372    -3.127810286E-09     4.247887658E+00     7.489569097E-01
     1373    -3.219162029E-09     5.011252689E+00     7.708308090E-01
     1374    -6.416814318E-09     5.011897315E+00     1.536512528E+00
     1375    -9.706766188E-09     4.977838868E+00     2.324295512E+00
     1376    -1.358639022E-08     4.895673386E+00     3.253276235E+00
     1377    -1.597654591E-08     4.342370317E+00     3.825602194E+00
     1378    -1.739579859E-08     3.762760812E+00     4.165444262E+00
     1379    -1.780311659E-08     3.237135103E+00     4.262977317E+00
     1380    -1.144304088E-15     2.699849149E+00    -1.626303259E-16
     1381    -2.983012611E-09     2.699849149E+00     7.142857143E-01
     1382    -2.768545993E-15     3.468262534E+00    -2.168404345E-16
     1383    -2.088108141E-08     2.699849149E+00     5.000000000E+00
     1384    -2.088108275E-08     3.332111815E+00     5.000000000E+00
     1385    -1.789806994E-08     2.699849149E+00     4.285714286E+00
     1386    -1.974413796E-08     3.942459534E+00     4.727756882E+00
     1387    -1.491505848E-08     2.699849149E+00     3.571428571E+00
     1388     0.000000000E+00     5.773502692E+00     3.911027528E+00
     1389    -1.747024838E-08     5.163154973E+00     4.183270646E+00
     1390    -1.860719317E-08     4.552807253E+00     4.455513764E+00
     1391    -1.306664440E-08     5.773502692E+00     3.128822022E+00
     1392    -1.193204701E-08     2.699849149E+00     2.857142857E+00
     1393    -9.799985209E-09     5.773502692E+00     2.346616517E+00
     1394    -8.949035544E-09     2.699849149E+00     2.142857143E+00
     1395    -5.966024077E-09     2.699849149E+00     1.428571429E+00
     1396     0.000000000E+00     5.773502692E+00     0.000000000E+00
     1397    -6.533326020E-09     5.773502692E+00     1.564411011E+00
     1398    -3.266666831E-09     5.773502692E+00     7.822055056E-01
     1399    -4.392787898E-15     4.236675920E+00    -2.710505431E-16
     1400    -6.017029803E-15     5.005089306E+00    -3.252606517E-16
     1401     5.810398562E-01     3.854947645E+00     3.460989325E+00
     1402     5.335959631E-01     3.540177980E+00     3.369690174E+00
     1403     5.951534605E-01     3.948585279E+00     2.905786639E+00
     1404     5.988118833E-01     3.972857313E+00     2.251289708E+00
     1405     6.022139005E-01     3.995428205E+00     1.514686240E+00
     1406     5.235406349E-01     3.473465243E+00     3.699612368E+00
     1407     4.639560309E-01     3.078147223E+00     3.599284085E+00
     1408     4.971186243E-01     3.298166640E+00     2.966045866E+00
     1409     4.996980606E-01     3.315280064E+00     2.196426958E+00
     1410     5.021955071E-01     3.331849522E+00     1.457913960E+00
     1411     5.023765878E-01     3.333050896E+00     7.215264551E-01
     1412     6.028221140E-01     3.999463421E+00     7.671883054E-01
     1413     7.016999004E-01     4.655474671E+00     8.062365565E-01
     1414     7.018671063E-01     4.656584028E+00     1.590564001E+00
     1415     6.974613554E-01     4.627353799E+00     2.404178384E+00
     1416     6.876883187E-01     4.562513959E+00     3.356393007E+00
     1417     6.186747814E-01     4.104639070E+00     3.904226109E+00
     1418     5.443840342E-01     3.611752174E+00     4.214604186E+00
     1419     4.759815401E-01     3.157931280E+00     4.282395454E+00
     1420     4.023916354E-01     2.669694064E+00    -2.168404345E-16
     1421     4.023916330E-01     2.669694065E+00     7.142857143E-01
     1422     5.018386403E-01     3.329481831E+00    -2.710505431E-16
     1423     4.023916183E-01     2.669694067E+00     5.000000000E+00
     1424     4.966254789E-01     3.294894882E+00     5.000000000E+00
     1425     4.023916208E-01     2.669694067E+00     4.285714286E+00
     1426     5.725870192E-01     3.798866766E+00     4.772666260E+00
     1427     4.023916232E-01     2.669694066E+00     3.571428571E+00
     1428     8.004718749E-01     5.310783980E+00     4.090668575E+00
     1429     7.245100997E-01     4.806810536E+00     4.317998781E+00
     1430     6.485485594E-01     4.302838651E+00     4.545332520E+00
     1431     8.005320896E-01     5.311183459E+00     3.272534860E+00
     1432     4.023916257E-01     2.669694066E+00     2.857142857E+00
     1433     8.005242911E-01     5.311131701E+00     2.454401145E+00
     1434     4.023916281E-01     2.669694065E+00     2.142857143E+00
     1435     4.023916306E-01     2.669694065E+00     1.428571429E+00
     1436     8.001796548E-01     5.308845132E+00    -2.191264748E-11
     1437     8.005164926E-01     5.311079942E+00     1.636267430E+00
     1438     8.005086941E-01     5.311028184E+00     8.181337149E-01
     1439     6.012856451E-01     3.989269598E+00    -3.252606517E-16
     1440     7.007326500E-01     4.649057365E+00    -2.710505431E-16
     1441     1.119487813E+00     3.629290384E+00     3.499974961E+00
     1442     1.033933340E+00     3.351929593E+00     3.398350585E+00
     1443     1.142393717E+00     3.703549495E+00     2.943637947E+00
     1444     1.148976919E+00     3.724891706E+00     2.282100938E+00
     1445     1.155103698E+00     3.744754230E+00     1.536139117E+00
     1446     1.017801758E+00     3.299632293E+00     3.726222561E+00
     1447     9.086121365E-01     2.945648233E+00     3.612806612E+00
     1448     9.661786260E-01     3.132274202E+00     2.986631305E+00
     1449     9.707607821E-01     3.147129180E+00     2.211686914E+00
     1450     9.752587139E-01     3.161711110E+00     1.468436140E+00
     1451     9.757179110E-01     3.163199783E+00     7.216830432E-01
     1452     1.156332990E+00     3.748739490E+00     7.781621825E-01
     1453     1.334127098E+00     4.325133830E+00     8.275480530E-01
     1454     1.334289574E+00     4.325660571E+00     1.623098769E+00
     1455     1.326356929E+00     4.299943576E+00     2.452261639E+00
     1456     1.309968523E+00     4.246813680E+00     3.418461834E+00
     1457     1.189551395E+00     3.856430942E+00     3.951553928E+00
     1458     1.057052066E+00     3.426878671E+00     4.244196873E+00
     1459     9.336060950E-01     3.026676663E+00     4.294084545E+00
     1460     7.957945067E-01     2.579902426E+00    -1.626303259E-16
     1461     7.957945048E-01     2.579902427E+00     7.142857143E-01
     1462     9.747518728E-01     3.160067958E+00    -2.168404345E-16
     1463     7.957944935E-01     2.579902430E+00     5.000000000E+00
     1464     9.821571860E-01     3.184075440E+00     5.000000000E+00
     1465     7.957944954E-01     2.579902430E+00     4.285714286E+00
     1466     1.114518860E+00     3.613181445E+00     4.799700256E+00
     1467     7.957944973E-01     2.579902429E+00     3.571428571E+00
     1468     1.511603545E+00     4.900498370E+00     4.198798463E+00
     1469     1.379242207E+00     4.471393456E+00     4.399100767E+00
     1470     1.246880534E+00     4.042287451E+00     4.599400511E+00
     1471     1.511673334E+00     4.900724613E+00     3.359038770E+00
     1472     7.957944992E-01     2.579902428E+00     2.857142857E+00
     1473     1.511673538E+00     4.900725267E+00     2.519279078E+00
     1474     7.957945010E-01     2.579902428E+00     2.142857143E+00
     1475     7.957945029E-01     2.579902427E+00     1.428571429E+00
     1476     1.511623971E+00     4.900564553E+00    -2.161844922E-12
     1477     1.511673742E+00     4.900725922E+00     1.679519385E+00
     1478     1.511673946E+00     4.900726576E+00     8.397596926E-01
     1479     1.153709239E+00     3.740233489E+00    -2.168404345E-16
     1480     1.332666605E+00     4.320399021E+00    -2.710505431E-16
     1481     1.627323178E+00     3.379171415E+00     3.518374567E+00
     1482     1.507135993E+00     3.129600154E+00     3.411876979E+00
     1483     1.657555480E+00     3.441949434E+00     2.961502985E+00
     1484     1.666788880E+00     3.461122783E+00     2.296643204E+00
     1485     1.675382295E+00     3.478967191E+00     1.546264434E+00
     1486     1.486002753E+00     3.085716531E+00     3.738780655E+00
     1487     1.331282128E+00     2.764435841E+00     3.619188270E+00
     1488     1.410444595E+00     2.928818394E+00     2.996347189E+00
     1489     1.416825661E+00     2.942068810E+00     2.218889300E+00
     1490     1.423134595E+00     2.955169445E+00     1.473402392E+00
     1491     1.423787319E+00     2.956524836E+00     7.217569495E-01
     1492     1.677115276E+00     3.482565758E+00     7.833416266E-01
     1493     1.926486426E+00     4.000390287E+00     8.376066405E-01
     1494     1.926705380E+00     4.000844955E+00     1.638454509E+00
     1495     1.915579383E+00     3.977741587E+00     2.474955944E+00
     1496     1.893508618E+00     3.931911177E+00     3.447756651E+00
     1497     1.727427215E+00     3.587039592E+00     3.973890087E+00
     1498     1.542410613E+00     3.202848661E+00     4.258162490E+00
     1499     1.368915243E+00     2.842581813E+00     4.299600954E+00
     1500     1.171420644E+00     2.432480031E+00    -1.626303259E-16
     1501     1.171420642E+00     2.432480032E+00     7.142857143E-01
     1502     1.422432450E+00     2.953711417E+00    -1.626303259E-16
     1503     1.171420634E+00     2.432480035E+00     5.000000000E+00
     1504     1.445749124E+00     3.002129014E+00     5.000000000E+00
     1505     1.171420636E+00     2.432480035E+00     4.285714286E+00
     1506     1.628177131E+00     3.380944673E+00     4.812458354E+00
     1507     1.171420637E+00     2.432480034E+00     3.571428571E+00
     1508     2.175461177E+00     4.517391702E+00     4.249833544E+00
     1509     1.993033145E+00     4.138575992E+00     4.437375063E+00
     1510     1.810605138E+00     3.759760333E+00     4.624916708E+00
     1511     2.175501614E+00     4.517475667E+00     3.399866835E+00
     1512     1.171420638E+00     2.432480034E+00     2.857142857E+00
     1513     2.175501623E+00     4.517475681E+00     2.549900126E+00
     1514     1.171420640E+00     2.432480033E+00     2.142857143E+00
     1515     1.171420641E+00     2.432480032E+00     1.428571429E+00
     1516     2.175467868E+00     4.517405576E+00    -2.177349013E-12
     1517     2.175501632E+00     4.517475696E+00     1.699933417E+00
     1518     2.175501641E+00     4.517475710E+00     8.499667087E-01
     1519     1.673444256E+00     3.474942803E+00    -2.168404345E-16
     1520     1.924456062E+00     3.996174190E+00    -2.710505431E-16
     1521     2.112818091E+00     3.098934984E+00     3.518313680E+00
     1522     1.956773402E+00     2.870059461E+00     3.411832220E+00
     1523     2.152038449E+00     3.156460682E+00     2.961443857E+00
     1524     2.164026355E+00     3.174043709E+00     2.296595074E+00
     1525     2.175184397E+00     3.190409550E+00     1.546230922E+00
     1526     1.929359986E+00     2.829851365E+00     3.738739109E+00
     1527     1.728457254E+00     2.535181178E+00     3.619167158E+00
     1528     1.831209845E+00     2.685891547E+00     2.996315032E+00
     1529     1.839493763E+00     2.698041821E+00     2.218865462E+00
     1530     1.847686088E+00     2.710057754E+00     1.473385955E+00
     1531     1.848575999E+00     2.711363011E+00     7.217567049E-01
     1532     2.177477482E+00     3.193772884E+00     7.833244841E-01
     1533     2.501241027E+00     3.668646788E+00     8.375733495E-01
     1534     2.501481479E+00     3.668999468E+00     1.638403686E+00
     1535     2.487036389E+00     3.647812415E+00     2.474880833E+00
     1536     2.458396384E+00     3.605805245E+00     3.447659698E+00
     1537     2.242815189E+00     3.289605709E+00     3.973816182E+00
     1538     2.002601335E+00     2.937276696E+00     4.258116288E+00
     1539     1.777313476E+00     2.606840096E+00     4.299582704E+00
     1540     1.520879179E+00     2.230720051E+00    -1.626303259E-16
     1541     1.520879178E+00     2.230720052E+00     7.142857143E-01
     1542     1.846817344E+00     2.708783535E+00    -1.626303259E-16
     1543     1.520879173E+00     2.230720055E+00     5.000000000E+00
     1544     1.877045415E+00     2.753119986E+00     5.000000000E+00
     1545     1.520879174E+00     2.230720055E+00     4.285714286E+00
     1546     2.113948701E+00     3.100593287E+00     4.812416147E+00
     1547     1.520879175E+00     2.230720054E+00     3.571428571E+00
     1548     2.824658570E+00     4.143013208E+00     4.249664632E+00
     1549     2.587755273E+00     3.795539890E+00     4.437248440E+00
     1550     2.350851987E+00     3.448066589E+00     4.624832293E+00
     1551     2.824499022E+00     4.142779192E+00     3.399731706E+00
     1552     1.520879176E+00     2.230720054E+00     2.857142857E+00
     1553     2.824498993E+00     4.142779147E+00     2.549798779E+00
     1554     1.520879177E+00     2.230720053E+00     2.142857143E+00
     1555     1.520879177E+00     2.230720053E+00     1.428571429E+00
     1556     2.824631837E+00     4.142973986E+00    -4.622387542E-12
     1557     2.824498964E+00     4.142779103E+00     1.699865853E+00
     1558     2.824498935E+00     4.142779058E+00     8.499329265E-01
     1559     2.172755508E+00     3.186847019E+00    -2.168404345E-16
     1560     2.498693672E+00     3.664910503E+00    -2.168404345E-16
     1561     2.583380159E+00     2.784221653E+00     3.499874743E+00
     1562     2.385947809E+00     2.571440184E+00     3.398277026E+00
     1563     2.636180296E+00     2.841126667E+00     2.943539959E+00
     1564     2.651371338E+00     2.857498716E+00     2.282021175E+00
     1565     2.665510676E+00     2.872737297E+00     1.536083581E+00
     1566     2.348767728E+00     2.531369588E+00     3.726154865E+00
     1567     2.096752580E+00     2.259761854E+00     3.612772211E+00
     1568     2.229545739E+00     2.402878842E+00     2.986578031E+00
     1569     2.240117861E+00     2.414272878E+00     2.211647410E+00
     1570     2.250499140E+00     2.425461235E+00     1.468408901E+00
     1571     2.251626003E+00     2.426675703E+00     7.216826378E-01
     1572     2.668415653E+00     2.875868116E+00     7.781337738E-01
     1573     3.078694418E+00     3.318043463E+00     8.274928827E-01
     1574     3.079000012E+00     3.318372817E+00     1.623014544E+00
     1575     3.060695461E+00     3.298645203E+00     2.452137163E+00
     1576     3.022906074E+00     3.257917932E+00     3.418301494E+00
     1577     2.745115497E+00     2.958530892E+00     3.951432797E+00
     1578     2.439352739E+00     2.628997012E+00     4.244121591E+00
     1579     2.154421165E+00     2.321913808E+00     4.294054808E+00
     1580     1.836363787E+00     1.979129472E+00    -1.626303259E-16
     1581     1.836363787E+00     1.979129472E+00     7.142857143E-01
     1582     2.249397396E+00     2.424273835E+00    -2.168404345E-16
     1583     1.836363784E+00     1.979129475E+00     5.000000000E+00
     1584     2.266411612E+00     2.442610806E+00     5.000000000E+00
     1585     1.836363784E+00     1.979129475E+00     4.285714286E+00
     1586     2.571952350E+00     2.771905406E+00     4.799631482E+00
     1587     1.836363785E+00     1.979129474E+00     3.571428571E+00
     1588     3.488572322E+00     3.759786790E+00     4.198518541E+00
     1589     3.183033825E+00     3.430494605E+00     4.398894446E+00
     1590     2.877493088E+00     3.101200006E+00     4.599262964E+00
     1591     3.488334833E+00     3.759530836E+00     3.358814833E+00
     1592     1.836363785E+00     1.979129474E+00     2.857142857E+00
     1593     3.488334099E+00     3.759530045E+00     2.519111124E+00
     1594     1.836363786E+00     1.979129473E+00     2.142857143E+00
     1595     1.836363786E+00     1.979129473E+00     1.428571429E+00
     1596     3.488498222E+00     3.759706924E+00    -1.010313794E-12
     1597     3.488333366E+00     3.759529254E+00     1.679407416E+00
     1598     3.488332633E+00     3.759528462E+00     8.397037081E-01
     1599     2.662431004E+00     2.869418198E+00    -2.168404345E-16
     1600     3.075464613E+00     3.314562561E+00    -2.710505431E-16
     1601     3.048145085E+00     2.430814592E+00     3.460792888E+00
     1602     2.799238183E+00     2.232317961E+00     3.369545830E+00
     1603     3.122083655E+00     2.489778634E+00     2.905595524E+00
     1604     3.141288979E+00     2.505094369E+00     2.251134140E+00
     1605     3.159164562E+00     2.519349670E+00     1.514577922E+00
     1606     2.746573115E+00     2.190318972E+00     3.699478695E+00
     1607     2.433894733E+00     1.940966283E+00     3.599216156E+00
     1608     2.607778059E+00     2.079633607E+00     2.965941938E+00
     1609     2.621317052E+00     2.090430594E+00     2.196349909E+00
     1610     2.634442221E+00     2.100897567E+00     1.457860833E+00
     1611     2.635883853E+00     2.102047230E+00     7.215256645E-01
     1612     3.162854622E+00     2.522292394E+00     7.671328972E-01
     1613     3.681592920E+00     2.935972383E+00     8.061289527E-01
     1614     3.681961988E+00     2.936266705E+00     1.590399730E+00
     1615     3.658821887E+00     2.917813091E+00     2.403935607E+00
     1616     3.607578104E+00     2.876947538E+00     3.356079812E+00
     1617     3.245688110E+00     2.588349899E+00     3.903987945E+00
     1618     2.855937670E+00     2.277534294E+00     4.214455532E+00
     1619     2.496960853E+00     1.991259836E+00     4.282336735E+00
     1620     2.110827062E+00     1.683328411E+00    -1.084202172E-16
     1621     2.110827062E+00     1.683328411E+00     7.142857143E-01
     1622     2.633066259E+00     2.099800272E+00    -1.084202172E-16
     1623     2.110827061E+00     1.683328412E+00     5.000000000E+00
     1624     2.605149919E+00     2.077537737E+00     5.000000000E+00
     1625     2.110827061E+00     1.683328412E+00     4.285714286E+00
     1626     3.003859637E+00     2.395498127E+00     4.772530459E+00
     1627     2.110827061E+00     1.683328412E+00     3.571428571E+00
     1628     4.199989064E+00     3.349379515E+00     4.090122616E+00
     1629     3.801279074E+00     3.031418907E+00     4.317591377E+00
     1630     3.402569356E+00     2.713458517E+00     4.545060918E+00
     1631     4.199516145E+00     3.349002373E+00     3.272098093E+00
     1632     2.110827062E+00     1.683328412E+00     2.857142857E+00
     1633     4.199510667E+00     3.348998004E+00     2.454073570E+00
     1634     2.110827062E+00     1.683328411E+00     2.142857143E+00
     1635     2.110827062E+00     1.683328411E+00     1.428571429E+00
     1636     4.199783848E+00     3.349215858E+00    -4.422460662E-13
     1637     4.199505189E+00     3.348993635E+00     1.636049046E+00
     1638     4.199499711E+00     3.348989266E+00     8.180245232E-01
     1639     3.155305455E+00     2.516272134E+00    -1.626303259E-16
     1640     3.677544651E+00     2.932743996E+00    -1.626303259E-16
     1641     3.204566926E+00     1.850157577E+00     3.322077136E+00
     1642     3.626902414E+00     2.093993085E+00     2.842902559E+00
     1643     3.651380545E+00     2.108125541E+00     2.200101627E+00
     1644     3.520566049E+00     2.032599756E+00     3.396222726E+00
     1645     2.739479250E+00     1.581639082E+00     3.576820210E+00
     1646     2.971168951E+00     1.715405193E+00     2.931846399E+00
     1647     2.988717258E+00     1.725536713E+00     2.171074905E+00
     1648     3.005443172E+00     1.735193424E+00     1.440432991E+00
     1649     4.340430396E+00     2.505948657E+00     1.536512528E+00
     1650     4.310934916E+00     2.488919434E+00     2.324295512E+00
     1651     4.239777521E+00     2.447836693E+00     3.253276235E+00
     1652     3.760603007E+00     2.171185158E+00     3.825602194E+00
     1653     3.258646451E+00     1.881380406E+00     4.165444262E+00
     1654     2.803441235E+00     1.618567551E+00     4.262977317E+00
     1655     3.678778624E+00     2.123943829E+00     7.489569097E-01
     1656     3.007195080E+00     1.736204889E+00     7.212663083E-01
     1657     4.339872134E+00     2.505626345E+00     7.708308090E-01
     1658     3.127914118E+00     1.805902058E+00     3.655407018E+00
     1659     3.674162579E+00     2.121278754E+00     1.479045610E+00
     1660     2.338137949E+00     1.349924574E+00     4.285714286E+00
     1661     2.338137949E+00     1.349924574E+00     3.571428571E+00
     1662     2.338137949E+00     1.349924574E+00     2.857142857E+00
     1663     2.338137949E+00     1.349924574E+00     2.142857143E+00
     1664     2.338137949E+00     1.349924574E+00     1.428571429E+00
     1665     2.338137949E+00     1.349924574E+00     7.142857143E-01
     1666     3.414270110E+00     1.971229767E+00     4.727756882E+00
     1667     3.942846740E+00     2.276403627E+00     4.455513764E+00
     1668     4.471423370E+00     2.581577486E+00     4.183270646E+00
     1669     5.000000000E+00     2.886751346E+00     7.822055056E-01
     1670     5.000000000E+00     2.886751346E+00     1.564411011E+00
     1671     5.000000000E+00     2.886751346E+00     2.346616517E+00
     1672     5.000000000E+00     2.886751346E+00     3.128822022E+00
     1673     3.003603462E+00     1.734131267E+00    -1.062108641E-16
     1674     3.669068975E+00     2.118337960E+00    -1.297424880E-16
     1675     4.334534487E+00     2.502544653E+00    -1.532741119E-16
     1676     2.338137949E+00     1.349924574E+00     5.000000000E+00
     1677     2.885693480E+00     1.666055907E+00     5.000000000E+00
     1678     5.000000000E+00     2.886751346E+00     3.911027528E+00
     1679     2.338137949E+00     1.349924574E+00    -8.265904045E-17
     1680     5.000000000E+00     2.886751346E+00     0.000000000E+00
     1681     3.480843008E+00     1.366130209E+00     3.415336767E+00
     1682     3.671134487E+00     1.440814112E+00     3.186569200E+00
     1683     3.449597092E+00     1.353867091E+00     3.580311626E+00
     1684     3.746531940E+00     1.470405431E+00     3.682604412E+00
     1685     3.670270228E+00     1.132128429E+00     3.483405149E+00
     1686     3.578734167E+00     1.723427541E+00     3.432527972E+00
     1687     3.301436818E+00     1.295718468E+00     3.534662681E+00
     1688     3.218769081E+00     1.263273773E+00     3.167865426E+00
     1689     3.381442764E+00     1.043036956E+00     3.386169224E+00
     1690     3.273382054E+00     1.576377714E+00     3.348766809E+00
     1691     3.728570689E+00     1.463356160E+00     2.574178140E+00
     1692     3.410869112E+00     1.338667479E+00     2.936132775E+00
     1693     4.004181606E+00     1.571525474E+00     3.134268950E+00
     1694     3.751574131E+00     1.157207362E+00     2.927550321E+00
     1695     3.675431985E+00     1.769994756E+00     2.878152892E+00
     1696     3.750620840E+00     1.472010207E+00     1.875328818E+00
     1697     3.430483544E+00     1.346365577E+00     2.223855110E+00
     1698     4.048069908E+00     1.588750363E+00     2.328427215E+00
     1699     3.773830055E+00     1.164072406E+00     2.269005498E+00
     1700     3.699047542E+00     1.781367409E+00     2.228795645E+00
     1701     3.448906679E+00     1.353596124E+00     1.486297863E+00
     1702     3.763148628E+00     1.476927001E+00     1.140935004E+00
     1703     4.072453470E+00     1.598320206E+00     1.552690488E+00
     1704     3.794540451E+00     1.170460717E+00     1.527021179E+00
     1705     3.721024286E+00     1.791950852E+00     1.499024340E+00
     1706     3.083806555E+00     1.210304884E+00     3.649447763E+00
     1707     3.332506207E+00     1.307912305E+00     3.958288999E+00
     1708     3.323861986E+00     1.025275638E+00     3.714912531E+00
     1709     3.204071564E+00     1.542999541E+00     3.680186197E+00
     1710     3.005568197E+00     1.179598591E+00     3.283018787E+00
     1711     2.934600865E+00     1.151745966E+00     3.941167873E+00
     1712     2.705475531E+00     1.061820899E+00     3.585356172E+00
     1713     2.957961058E+00     9.124101488E-01     3.607059183E+00
     1714     2.824580428E+00     1.360246242E+00     3.589412269E+00
     1715     3.112770625E+00     1.221672444E+00     2.577446560E+00
     1716     2.809037064E+00     1.102465806E+00     2.911592944E+00
     1717     3.155788785E+00     9.734319214E-01     2.977882046E+00
     1718     3.043147785E+00     1.465502734E+00     2.951017262E+00
     1719     3.128767453E+00     1.227950737E+00     1.823540461E+00
     1720     2.817092243E+00     1.105627231E+00     2.169640983E+00
     1721     3.171373198E+00     9.782390767E-01     2.205201102E+00
     1722     3.059936544E+00     1.473587774E+00     2.185286265E+00
     1723     3.137129563E+00     1.231232623E+00     1.089719461E+00
     1724     2.824891390E+00     1.108688171E+00     1.443241958E+00
     1725     3.186575578E+00     9.829283902E-01     1.463963986E+00
     1726     3.076066449E+00     1.481355528E+00     1.450232132E+00
     1727     3.451371512E+00     1.354563501E+00     7.443566015E-01
     1728     2.825453062E+00     1.108908611E+00     7.177760113E-01
     1729     3.136011297E+00     1.230793737E+00     3.606331542E-01
     1730     3.188006019E+00     9.833696232E-01     7.216164898E-01
     1731     3.077554265E+00     1.482072022E+00     7.214121363E-01
     1732     4.073822978E+00     1.598857699E+00     7.869036176E-01
     1733     3.760249809E+00     1.475789299E+00     3.835933849E-01
     1734     3.798572315E+00     1.171704383E+00     7.734980469E-01
     1735     3.725271357E+00     1.793996134E+00     7.591767106E-01
     1736     4.383127820E+00     1.720250904E+00     1.198659102E+00
     1737     4.691174477E+00     1.841150308E+00     8.121821316E-01
     1738     4.380071676E+00     1.719051456E+00     4.031167872E-01
     1739     4.399604536E+00     1.357098271E+00     8.184902052E-01
     1740     4.362875121E+00     2.101049923E+00     7.906778737E-01
     1741     4.369890732E+00     1.715055729E+00     1.994132137E+00
     1742     4.691721006E+00     1.841364804E+00     1.613410413E+00
     1743     4.400279453E+00     1.357306454E+00     1.609270788E+00
     1744     4.363621359E+00     2.101409292E+00     1.566811651E+00
     1745     4.322919130E+00     1.696620734E+00     2.881146308E+00
     1746     4.677986869E+00     1.835974552E+00     2.429281861E+00
     1747     4.373460041E+00     1.349033761E+00     2.431825214E+00
     1748     4.335158370E+00     2.087702239E+00     2.369074697E+00
     1749     4.079579059E+00     1.601116793E+00     3.630304161E+00
     1750     4.415406659E+00     1.732919413E+00     3.828641947E+00
     1751     4.647491681E+00     1.824006073E+00     3.314453983E+00
     1752     4.316187281E+00     1.331367454E+00     3.392081203E+00
     1753     4.269345891E+00     2.056008620E+00     3.311079257E+00
     1754     3.634825806E+00     1.426564004E+00     4.061029498E+00
     1755     3.957352536E+00     1.553146417E+00     4.224777192E+00
     1756     3.903373423E+00     1.204031242E+00     3.931438438E+00
     1757     3.815910415E+00     1.837645603E+00     3.869674964E+00
     1758     3.191887747E+00     1.252723626E+00     4.245894374E+00
     1759     3.488136265E+00     1.368992601E+00     4.493634569E+00
     1760     3.453824050E+00     1.065363625E+00     4.231619205E+00
     1761     3.334469030E+00     1.605795651E+00     4.193000713E+00
     1762     3.026887212E+00     1.187965688E+00     4.646190784E+00
     1763     2.743029375E+00     1.076559696E+00     4.284054735E+00
     1764     3.037320067E+00     9.368891609E-01     4.289116374E+00
     1765     2.894571766E+00     1.393952294E+00     4.273862097E+00
     1766     2.513218698E+00     9.863656535E-01     3.571428571E-01
     1767     2.823776933E+00     1.108250779E+00    -5.421010862E-17
     1768     2.579902426E+00     7.957945067E-01    -1.084202172E-16
     1769     2.432480031E+00     1.171420644E+00    -5.421010862E-17
     1770     2.513218698E+00     9.863656533E-01     1.071428571E+00
     1771     2.579902426E+00     7.957945064E-01     7.142857143E-01
     1772     2.432480031E+00     1.171420644E+00     7.142857143E-01
     1773     3.444893402E+00     1.352021030E+00    -1.626303259E-16
     1774     3.184739179E+00     9.823619367E-01    -5.421010862E-17
     1775     3.074088367E+00     1.480402934E+00    -1.084202172E-16
     1776     2.807497057E+00     1.101861397E+00     5.000000000E+00
     1777     2.513218698E+00     9.863656522E-01     4.642857143E+00
     1778     2.579902427E+00     7.957945046E-01     5.000000000E+00
     1779     2.432480031E+00     1.171420643E+00     5.000000000E+00
     1780     3.338992681E+00     1.310458058E+00     4.886332818E+00
     1781     3.184075437E+00     9.821571971E-01     5.000000000E+00
     1782     3.002129010E+00     1.445749133E+00     5.000000000E+00
     1783     2.513218698E+00     9.863656524E-01     3.928571429E+00
     1784     2.579902427E+00     7.957945049E-01     4.285714286E+00
     1785     2.432480031E+00     1.171420643E+00     4.285714286E+00
     1786     3.813427209E+00     1.496659889E+00     4.658998454E+00
     1787     3.637797028E+00     1.122111773E+00     4.788210098E+00
     1788     3.501184665E+00     1.686081670E+00     4.752930702E+00
     1789     2.513218698E+00     9.863656527E-01     3.214285714E+00
     1790     2.579902427E+00     7.957945052E-01     3.571428571E+00
     1791     2.432480031E+00     1.171420643E+00     3.571428571E+00
     1792     4.762296265E+00     1.869063551E+00     4.204329725E+00
     1793     4.999959664E+00     1.962339562E+00     3.681588099E+00
     1794     4.998962024E+00     1.541975570E+00     4.152840917E+00
     1795     4.998353400E+00     2.407080132E+00     4.011727209E+00
     1796     4.287861737E+00     1.682861720E+00     4.431664089E+00
     1797     4.545240210E+00     1.402020925E+00     4.364630295E+00
     1798     4.499295976E+00     2.166746744E+00     4.258792107E+00
     1799     4.091518619E+00     1.262066349E+00     4.576420197E+00
     1800     4.000240321E+00     1.926414207E+00     4.505861404E+00
     1801     4.999981511E+00     1.962348137E+00     2.863457411E+00
     1802     4.999914814E+00     1.542269467E+00     3.322272734E+00
     1803     4.999711103E+00     2.407733968E+00     3.209381767E+00
     1804     2.513218698E+00     9.863656529E-01     2.500000000E+00
     1805     2.579902426E+00     7.957945055E-01     2.857142857E+00
     1806     2.432480031E+00     1.171420643E+00     2.857142857E+00
     1807     4.999975008E+00     1.962345585E+00     2.045326722E+00
     1808     4.999919808E+00     1.542271008E+00     2.491704550E+00
     1809     4.999732187E+00     2.407744121E+00     2.407036325E+00
     1810     2.513218698E+00     9.863656531E-01     1.785714286E+00
     1811     2.579902426E+00     7.957945058E-01     2.142857143E+00
     1812     2.432480031E+00     1.171420643E+00     2.142857143E+00
     1813     2.579902426E+00     7.957945061E-01     1.428571429E+00
     1814     2.432480031E+00     1.171420643E+00     1.428571429E+00
     1815     4.999828102E+00     1.962287929E+00     4.090653444E-01
     1816     4.687126341E+00     1.839561532E+00    -1.084202172E-16
     1817     4.999249437E+00     1.542064227E+00     1.099489423E-12
     1818     4.998913377E+00     2.407349804E+00     4.218088552E-13
     1819     4.999968505E+00     1.962343033E+00     1.227196033E+00
     1820     4.999924802E+00     1.542272548E+00     1.661136367E+00
     1821     4.999753270E+00     2.407754275E+00     1.604690883E+00
     1822     4.999929797E+00     1.542274089E+00     8.305681834E-01
     1823     4.999774354E+00     2.407764428E+00     8.023454417E-01
     1824     4.066009872E+00     1.595791281E+00    -1.084202172E-16
     1825     3.789575932E+00     1.168929367E+00    -5.421010862E-17
     1826     3.715696704E+00     1.789385224E+00    -1.084202172E-16
     1827     4.394412685E+00     1.355496797E+00    -1.084202172E-16
     1828     4.357305041E+00     2.098367514E+00    -1.084202172E-16
     1829     3.561312065E+00     8.128462373E-01     3.449163371E+00
     1830     3.737403221E+00     8.530378947E-01     3.226911402E+00
     1831     3.534894865E+00     8.068166837E-01     3.613119812E+00
     1832     3.818671987E+00     8.715869598E-01     3.725765107E+00
     1833     3.726104207E+00     5.616198425E-01     3.511535552E+00
     1834     3.393405509E+00     7.745226616E-01     3.562307497E+00
     1835     3.307770526E+00     7.549770355E-01     3.192491466E+00
     1836     3.447336611E+00     5.196023882E-01     3.406849372E+00
     1837     3.789452136E+00     8.649177202E-01     2.605893008E+00
     1838     3.486914461E+00     7.958654699E-01     2.965488868E+00
     1839     4.052418870E+00     9.249381610E-01     3.186155259E+00
     1840     3.797929640E+00     5.724457850E-01     2.954862274E+00
     1841     3.810472357E+00     8.697154489E-01     1.896856088E+00
     1842     3.505606758E+00     8.001318650E-01     2.246894574E+00
     1843     4.093689058E+00     9.343578123E-01     2.368301748E+00
     1844     3.819357326E+00     5.756754894E-01     2.291237619E+00
     1845     3.523177821E+00     8.041423460E-01     1.502288078E+00
     1846     3.822637135E+00     8.724919804E-01     1.157151106E+00
     1847     4.116940595E+00     9.396648245E-01     1.579730476E+00
     1848     3.839294354E+00     5.786805133E-01     1.542500697E+00
     1849     3.185889070E+00     7.271583884E-01     3.669514678E+00
     1850     3.427241300E+00     7.822454597E-01     3.987102394E+00
     1851     3.396980777E+00     5.120124672E-01     3.734113299E+00
     1852     3.107713169E+00     7.093152494E-01     3.300287816E+00
     1853     3.045497101E+00     6.951148375E-01     3.953971722E+00
     1854     2.818735215E+00     6.433579169E-01     3.592117622E+00
     1855     3.039280039E+00     4.580977559E-01     3.616816455E+00
     1856     3.203069238E+00     7.310796502E-01     2.593091995E+00
     1857     2.913938318E+00     6.650874042E-01     2.921887366E+00
     1858     3.224387935E+00     4.859982823E-01     2.992735654E+00
     1859     3.218313538E+00     7.345590626E-01     1.834249254E+00
     1860     2.921516253E+00     6.668170188E-01     2.177272243E+00
     1861     3.239236303E+00     4.882363143E-01     2.216212062E+00
     1862     3.226510912E+00     7.364300602E-01     1.095059742E+00
     1863     2.928954896E+00     6.685148411E-01     1.448503932E+00
     1864     3.253871087E+00     4.904421534E-01     1.471556359E+00
     1865     3.525970226E+00     8.047796946E-01     7.499227693E-01
     1866     2.929714012E+00     6.686881046E-01     7.177760113E-01
     1867     3.225672398E+00     7.362386751E-01     3.606331542E-01
     1868     3.255183303E+00     4.906399386E-01     7.217294774E-01
     1869     4.118704230E+00     9.400673631E-01     8.031654856E-01
     1870     3.820330982E+00     8.719656164E-01     3.890812455E-01
     1871     3.843110535E+00     5.792557105E-01     7.814163470E-01
     1872     4.413007691E+00     1.007240207E+00     1.225744856E+00
     1873     4.706365003E+00     1.074197100E+00     8.336544763E-01
     1874     4.410363918E+00     1.006636784E+00     4.137743261E-01
     1875     4.421858117E+00     6.664878728E-01     8.338677077E-01
     1876     4.400157844E+00     1.004307313E+00     2.032501168E+00
     1877     4.706633373E+00     1.074258353E+00     1.651310142E+00
     1878     4.422575478E+00     6.665959972E-01     1.632746543E+00
     1879     4.355389926E+00     9.940893276E-01     2.936754106E+00
     1880     4.693514093E+00     1.071263962E+00     2.485771946E+00
     1881     4.396757015E+00     6.627044895E-01     2.466520119E+00
     1882     4.133687636E+00     9.434872261E-01     3.685008964E+00
     1883     4.456253818E+00     1.017110852E+00     3.895088608E+00
     1884     4.666410699E+00     1.065077789E+00     3.388752301E+00
     1885     4.344734858E+00     6.548634104E-01     3.436867509E+00
     1886     3.720086354E+00     8.490854322E-01     4.100463937E+00
     1887     4.029352952E+00     9.196735150E-01     4.275477643E+00
     1888     3.956820205E+00     5.963946837E-01     3.965588186E+00
     1889     3.301257054E+00     7.534903775E-01     4.264967662E+00
     1890     3.591327904E+00     8.196971561E-01     4.521948694E+00
     1891     3.526695262E+00     5.315637796E-01     4.252972012E+00
     1892     3.150791679E+00     7.191476375E-01     4.655041356E+00
     1893     2.860070053E+00     6.527923237E-01     4.289899442E+00
     1894     3.124333856E+00     4.709175557E-01     4.297550719E+00
     1895     2.632158294E+00     6.007729539E-01     3.571428571E-01
     1896     2.928116680E+00     6.683235244E-01    -5.421010862E-17
     1897     2.669694064E+00     4.023916354E-01    -5.421010862E-17
     1898     2.632158294E+00     6.007729535E-01     1.071428571E+00
     1899     2.669694064E+00     4.023916350E-01     7.142857143E-01
     1900     3.520033451E+00     8.034246649E-01    -5.421010862E-17
     1901     3.252036974E+00     4.901657063E-01    -1.084202172E-16
     1902     2.940363555E+00     6.711187910E-01     5.000000000E+00
     1903     2.632158294E+00     6.007729517E-01     4.642857143E+00
     1904     2.669694065E+00     4.023916325E-01     5.000000000E+00
     1905     3.467467449E+00     7.914268153E-01     4.899850190E+00
     1906     3.294894879E+00     4.966254931E-01     5.000000000E+00
     1907     2.632158294E+00     6.007729521E-01     3.928571429E+00
     1908     2.669694065E+00     4.023916329E-01     4.285714286E+00
     1909     3.905264717E+00     8.913511849E-01     4.699550569E+00
     1910     3.721164184E+00     5.608752531E-01     4.807716664E+00
     1911     2.632158294E+00     6.007729524E-01     3.214285714E+00
     1912     2.669694065E+00     4.023916334E-01     3.571428571E+00
     1913     4.780859252E+00     1.091199924E+00     4.298951328E+00
     1914     4.999993725E+00     1.141215938E+00     3.778921352E+00
     1915     4.999970491E+00     7.536242910E-01     4.230863014E+00
     1916     4.343061985E+00     9.912755545E-01     4.499250949E+00
     1917     4.573702793E+00     6.893747731E-01     4.423149993E+00
     1918     4.147433489E+00     6.251250131E-01     4.615433328E+00
     1919     4.999999456E+00     1.141217246E+00     2.939161052E+00
     1920     4.999995325E+00     7.536280346E-01     3.384690411E+00
     1921     2.632158294E+00     6.007729528E-01     2.500000000E+00
     1922     2.669694065E+00     4.023916338E-01     2.857142857E+00
     1923     4.999999489E+00     1.141217254E+00     2.099400751E+00
     1924     4.999991305E+00     7.536274292E-01     2.538517808E+00
     1925     2.632158294E+00     6.007729532E-01     1.785714286E+00
     1926     2.669694064E+00     4.023916342E-01     2.142857143E+00
     1927     2.669694064E+00     4.023916346E-01     1.428571429E+00
     1928     4.999995446E+00     1.141216332E+00     4.198801503E-01
     1929     4.703866995E+00     1.073626946E+00    -1.084202172E-16
     1930     4.999065703E+00     7.534879187E-01     3.712254028E-12
     1931     4.999999522E+00     1.141217262E+00     1.259640451E+00
     1932     4.999987285E+00     7.536268238E-01     1.692345206E+00
     1933     4.999983266E+00     7.536262184E-01     8.461726028E-01
     1934     4.111950223E+00     9.385258055E-01    -1.084202172E-16
     1935     3.834379884E+00     5.779397771E-01    -1.084202172E-16
     1936     4.416722794E+00     6.657138479E-01    -1.084202172E-16
     1937     3.601995588E+00     2.699322505E-01     3.465125644E+00
     1938     3.770896296E+00     2.825896089E-01     3.245947735E+00
     1939     3.578025066E+00     2.681359081E-01     3.628601806E+00
     1940     3.855145499E+00     2.889032135E-01     3.746132184E+00
     1941     3.744803989E+00    -2.274610652E-09     3.520613055E+00
     1942     3.439910742E+00     2.577856704E-01     3.575353040E+00
     1943     3.352767347E+00     2.512551761E-01     3.204111971E+00
     1944     3.469421623E+00    -2.205422060E-09     3.413522695E+00
     1945     3.820204044E+00     2.862847142E-01     2.620858173E+00
     1946     3.525349525E+00     2.641884224E-01     2.979341008E+00
     1947     4.076785984E+00     3.055128721E-01     3.210638685E+00
     1948     3.813487881E+00    -1.914786333E-09     2.963675840E+00
     1949     3.840690138E+00     2.878199352E-01     1.907014072E+00
     1950     3.543566928E+00     2.655536285E-01     2.257766112E+00
     1951     4.116714825E+00     3.085051256E-01     2.387117180E+00
     1952     3.834639764E+00    -1.484974629E-09     2.298411923E+00
     1953     3.560692112E+00     2.668369841E-01     1.509833315E+00
     1954     3.852556584E+00     2.887092029E-01     1.164802931E+00
     1955     4.139375660E+00     3.102033209E-01     1.592489725E+00
     1956     3.854326026E+00    -9.998250949E-10     1.547495936E+00
     1957     3.237511549E+00     2.426179477E-01     3.678984443E+00
     1958     3.475150617E+00     2.604265337E-01     4.000699705E+00
     1959     3.421460339E+00    -2.416551228E-09     3.740309086E+00
     1960     3.159363531E+00     2.367615636E-01     3.308437047E+00
     1961     3.101574519E+00     2.324308754E-01     3.960013979E+00
     1962     2.876006291E+00     2.155268738E-01     3.595308414E+00
     1963     3.066550988E+00    -2.338799699E-09     3.619964974E+00
     1964     3.248712413E+00     2.434573371E-01     2.600474542E+00
     1965     2.966976627E+00     2.223441585E-01     2.926744961E+00
     1966     3.247419548E+00    -1.936658070E-09     2.997528908E+00
     1967     3.263569424E+00     2.445707167E-01     1.839302368E+00
     1968     2.974309492E+00     2.228936812E-01     2.180873175E+00
     1969     3.262023492E+00    -1.434162904E-09     2.219765298E+00
     1970     3.271569192E+00     2.451702169E-01     1.097579638E+00
     1971     2.981559466E+00     2.234369922E-01     1.450986878E+00
     1972     3.276476580E+00    -9.523452584E-10     1.474006418E+00
     1973     3.563433665E+00     2.670424356E-01     7.525492541E-01
     1974     2.982309408E+00     2.234931930E-01     7.177760113E-01
     1975     3.270762171E+00     2.451097394E-01     3.606331542E-01
     1976     3.277990427E+00    -4.663400015E-10     7.217659384E-01
     1977     4.141115212E+00     3.103336827E-01     8.108389066E-01
     1978     3.850329464E+00     2.885423037E-01     3.916707798E-01
     1979     3.858314813E+00    -5.065295861E-10     7.839715821E-01
     1980     4.427934288E+00     3.318278008E-01     1.238525701E+00
     1981     4.713841187E+00     3.532535611E-01     8.437865437E-01
     1982     4.425368302E+00     3.316355072E-01     4.188032552E-01
     1983     4.429574619E+00    -5.419723155E-10     8.388300272E-01
     1984     4.415400508E+00     3.308885233E-01     2.050606205E+00
     1985     4.714092793E+00     3.532724159E-01     1.669193732E+00
     1986     4.430057021E+00    -1.059797937E-09     1.640322168E+00
     1987     4.371770019E+00     3.276188696E-01     2.962993530E+00
     1988     4.701307234E+00     3.523142702E-01     2.512427691E+00
     1989     4.404569580E+00    -1.600818923E-09     2.477716164E+00
     1990     4.161035188E+00     3.118264767E-01     3.710823135E+00
     1991     4.476893990E+00     3.354968215E-01     3.926443595E+00
     1992     4.675944393E+00     3.504135874E-01     3.423811309E+00
     1993     4.354286218E+00    -2.229841928E-09     3.451319962E+00
     1994     3.763206639E+00     2.820133482E-01     4.119073373E+00
     1995     4.065765866E+00     3.046870276E-01     4.299403307E+00
     1996     3.974676369E+00    -2.569218443E-09     3.976607958E+00
     1997     3.356563849E+00     2.515396838E-01     4.273968526E+00
     1998     3.643513138E+00     2.730435601E-01     4.535310395E+00
     1999     3.551083136E+00    -2.752222542E-09     4.259862229E+00
     2000     3.213445754E+00     2.408144651E-01     4.659218025E+00
     2001     2.919252766E+00     2.187677487E-01     4.292657614E+00
     2002     3.153522566E+00    -2.778330625E-09     4.300272349E+00
     2003     2.692299823E+00     2.017599793E-01     3.571428571E-01
     2004     2.980752585E+00     2.233765257E-01     0.000000000E+00
     2005     2.699849149E+00    -2.369380888E-14     0.000000000E+00
     2006     2.692299823E+00     2.017599789E-01     1.071428571E+00
     2007     2.699849149E+00    -4.615072506E-10     7.142857143E-01
     2008     3.557658110E+00     2.666096181E-01     0.000000000E+00
     2009     3.274886861E+00    -2.364443108E-14     0.000000000E+00
     2010     3.007547189E+00     2.253845005E-01     5.000000000E+00
     2011     2.692299823E+00     2.017599766E-01     4.642857143E+00
     2012     2.699849149E+00    -3.230408591E-09     5.000000000E+00
     2013     3.532433577E+00     2.647192976E-01     4.906229164E+00
     2014     3.332111815E+00    -3.230408537E-09     5.000000000E+00
     2015     2.692299823E+00     2.017599771E-01     3.928571429E+00
     2016     2.699849149E+00    -2.768925034E-09     4.285714286E+00
     2017     3.951711623E+00     2.961398435E-01     4.718687493E+00
     2018     3.749084281E+00    -3.110245372E-09     4.814011127E+00
     2019     2.692299823E+00     2.017599775E-01     3.214285714E+00
     2020     2.699849149E+00    -2.307441478E-09     3.571428571E+00
     2021     4.790267714E+00     3.589809353E-01     4.343604149E+00
     2022     4.999999738E+00     3.746981780E-01     3.824849596E+00
     2023     5.000000000E+00    -2.749753443E-09     4.256040741E+00
     2024     4.370989668E+00     3.275603894E-01     4.531145821E+00
     2025     4.583029214E+00    -2.869919042E-09     4.442033381E+00
     2026     4.166056748E+00    -2.990082207E-09     4.628022254E+00
     2027     4.999999997E+00     3.746981980E-01     2.974883019E+00
     2028     5.000000000E+00    -2.199807454E-09     3.404832593E+00
     2029     2.692299823E+00     2.017599780E-01     2.500000000E+00
     2030     2.699849149E+00    -1.845957921E-09     2.857142857E+00
     2031     4.999999997E+00     3.746981985E-01     2.124916442E+00
     2032     5.000000000E+00    -1.649861464E-09     2.553624445E+00
     2033     2.692299823E+00     2.017599784E-01     1.785714286E+00
     2034     2.699849149E+00    -1.384474364E-09     2.142857143E+00
     2035     2.699849149E+00    -9.229908073E-10     1.428571429E+00
     2036     4.999999781E+00     3.746981834E-01     4.249832884E-01
     2037     4.711469159E+00     3.530758028E-01     5.421010862E-17
     2038     5.000000000E+00    -2.349629766E-14    -1.084202172E-16
     2039     4.999999997E+00     3.746981991E-01     1.274949865E+00
     2040     5.000000000E+00    -1.099915475E-09     1.702416296E+00
     2041     5.000000000E+00    -5.499694856E-10     8.512081482E-01
     2042     4.134563635E+00     3.098427104E-01     0.000000000E+00
     2043     3.849924574E+00    -2.359505327E-14     0.000000000E+00
     2044     4.424962287E+00    -2.354567547E-14     0.000000000E+00
     2045     3.602048359E+00    -2.699362096E-01     3.465072682E+00
     2046     3.770915071E+00    -2.825910200E-01     3.245884500E+00
     2047     3.578100119E+00    -2.681415372E-01     3.628550479E+00
     2048     3.855227702E+00    -2.889093786E-01     3.746064633E+00
     2049     3.726117458E+00    -5.616218441E-01     3.511522377E+00
     2050     3.439982934E+00    -2.577910850E-01     3.575309805E+00
     2051     3.352793205E+00    -2.512571179E-01     3.204073394E+00
     2052     3.447348110E+00    -5.196041254E-01     3.406839699E+00
     2053     3.820205006E+00    -2.862847896E-01     2.620808437E+00
     2054     3.525350254E+00    -2.641884809E-01     2.979294971E+00
     2055     4.076790886E+00    -3.055132434E-01     3.210557323E+00
     2056     3.797933151E+00    -5.724463177E-01     2.954849407E+00
     2057     3.840691082E+00    -2.878200084E-01     1.906980313E+00
     2058     3.543567651E+00    -2.655536856E-01     2.257729981E+00
     2059     4.116716039E+00    -3.085052196E-01     2.387054649E+00
     2060     3.819362321E+00    -5.756762451E-01     2.291227145E+00
     2061     3.560694911E+00    -2.668371958E-01     1.509808239E+00
     2062     3.852597555E+00    -2.887122746E-01     1.164777501E+00
     2063     4.139377475E+00    -3.102034589E-01     1.592447321E+00
     2064     3.839306852E+00    -5.786823990E-01     1.542493404E+00
     2065     3.237581646E+00    -2.426232054E-01     3.678953089E+00
     2066     3.475251268E+00    -2.604340815E-01     4.000654684E+00
     2067     3.397000543E+00    -5.120154510E-01     3.734104382E+00
     2068     3.159408975E+00    -2.367649734E-01     3.308410040E+00
     2069     3.101619245E+00    -2.324342322E-01     3.959993973E+00
     2070     2.876029910E+00    -2.155286484E-01     3.595297850E+00
     2071     3.039290084E+00    -4.580992742E-01     3.616811924E+00
     2072     3.248712887E+00    -2.434573759E-01     2.600450007E+00
     2073     2.966977529E+00    -2.223442298E-01     2.926728818E+00
     2074     3.224389555E+00    -4.859985302E-01     2.992728658E+00
     2075     3.263569894E+00    -2.445707542E-01     1.839285575E+00
     2076     2.974309731E+00    -2.228937019E-01     2.180861207E+00
     2077     3.239238779E+00    -4.882366900E-01     2.216206874E+00
     2078     3.271609575E+00    -2.451732445E-01     1.097571263E+00
     2079     2.981560864E+00    -2.234370987E-01     1.450978626E+00
     2080     3.253881593E+00    -4.904437387E-01     1.471552782E+00
     2081     3.563512219E+00    -2.670483234E-01     7.525405252E-01
     2082     2.982348960E+00    -2.234961579E-01     7.177760113E-01
     2083     3.270841062E+00    -2.451156520E-01     3.606331542E-01
     2084     3.255423552E+00    -4.906761511E-01     7.217294241E-01
     2085     4.141195205E+00    -3.103396784E-01     8.108134047E-01
     2086     3.850447711E+00    -2.885511657E-01     3.916621737E-01
     2087     3.843356326E+00    -5.792927585E-01     7.814126167E-01
     2088     4.427975125E+00    -3.318308626E-01     1.238483225E+00
     2089     4.713881602E+00    -3.532565909E-01     8.437528707E-01
     2090     4.425450485E+00    -3.316416666E-01     4.187865421E-01
     2091     4.422105535E+00    -6.665251661E-01     8.338604635E-01
     2092     4.415401945E+00    -3.308886336E-01     2.050546034E+00
     2093     4.714094456E+00    -3.532725426E-01     1.669134298E+00
     2094     4.422585734E+00    -6.665975450E-01     1.632735483E+00
     2095     4.371771478E+00    -3.276189827E-01     2.962906325E+00
     2096     4.701308947E+00    -3.523144017E-01     2.512339103E+00
     2097     4.396764191E+00    -6.627055741E-01     2.466503775E+00
     2098     4.161103517E+00    -3.118316020E-01     3.710737457E+00
     2099     4.476981238E+00    -3.355033648E-01     3.926339534E+00
     2100     4.675959353E+00    -3.504147129E-01     3.423694816E+00
     2101     4.344744122E+00    -6.548648108E-01     3.436846447E+00
     2102     3.763340798E+00    -2.820234073E-01     4.119011751E+00
     2103     4.065914690E+00    -3.046981860E-01     4.299324042E+00
     2104     3.956844333E+00    -5.963983252E-01     3.965572249E+00
     2105     3.356630475E+00    -2.515446822E-01     4.273938724E+00
     2106     3.643612044E+00    -2.730509778E-01     4.535266154E+00
     2107     3.526717243E+00    -5.315670979E-01     4.252962097E+00
     2108     3.213476670E+00    -2.408167878E-01     4.659204196E+00
     2109     2.919273182E+00    -2.187692841E-01     4.292648482E+00
     2110     3.124342538E+00    -4.709188695E-01     4.297546802E+00
     2111     2.692299823E+00    -2.017599798E-01     3.571428571E-01
     2112     2.980791925E+00    -2.233794738E-01     0.000000000E+00
     2113     2.669694064E+00    -4.023916354E-01    -5.421010862E-17
     2114     2.692299823E+00    -2.017599802E-01     1.071428571E+00
     2115     2.669694064E+00    -4.023916359E-01     7.142857143E-01
     2116     3.557776128E+00    -2.666184623E-01     0.000000000E+00
     2117     3.252279376E+00    -4.902022424E-01     5.421010862E-17
     2118     3.007547188E+00    -2.253845068E-01     5.000000000E+00
     2119     2.692299823E+00    -2.017599825E-01     4.642857143E+00
     2120     2.669694064E+00    -4.023916384E-01     5.000000000E+00
     2121     3.532480796E+00    -2.647228423E-01     4.906208043E+00
     2122     3.294894878E+00    -4.966254990E-01     5.000000000E+00
     2123     2.692299823E+00    -2.017599820E-01     3.928571429E+00
     2124     2.669694064E+00    -4.023916380E-01     4.285714286E+00
     2125     3.951853279E+00    -2.961504651E-01     4.718624130E+00
     2126     3.721184265E+00    -5.608782856E-01     4.807707606E+00
     2127     2.692299823E+00    -2.017599816E-01     3.214285714E+00
     2128     2.669694064E+00    -4.023916375E-01     3.571428571E+00
     2129     4.790598245E+00    -3.590057107E-01     4.343456304E+00
     2130     5.000000797E+00    -3.746982623E-01     3.824696957E+00
     2131     5.000050587E+00    -7.536363686E-01     4.230826258E+00
     2132     4.371225762E+00    -3.275780879E-01     4.531040217E+00
     2133     4.573763038E+00    -6.893838588E-01     4.423122817E+00
     2134     4.147473651E+00    -6.251310722E-01     4.615415211E+00
     2135     5.000000008E+00    -3.746982026E-01     2.974764300E+00
     2136     5.000001056E+00    -7.536289024E-01     3.384661006E+00
     2137     2.692299823E+00    -2.017599811E-01     2.500000000E+00
     2138     2.669694064E+00    -4.023916371E-01     2.857142857E+00
     2139     5.000000008E+00    -3.746982021E-01     2.124831643E+00
     2140     5.000000988E+00    -7.536288917E-01     2.538495755E+00
     2141     2.692299823E+00    -2.017599807E-01     1.785714286E+00
     2142     2.669694064E+00    -4.023916367E-01     2.142857143E+00
     2143     2.669694064E+00    -4.023916363E-01     1.428571429E+00
     2144     5.000000665E+00    -3.746982502E-01     4.249663286E-01
     2145     4.711744536E+00    -3.530964394E-01     0.000000000E+00
     2146     5.000035309E+00    -7.536340633E-01     1.402415510E-13
     2147     5.000000008E+00    -3.746982015E-01     1.274898986E+00
     2148     5.000000920E+00    -7.536288809E-01     1.692330503E+00
     2149     5.000000852E+00    -7.536288702E-01     8.461652516E-01
     2150     4.134760332E+00    -3.098574508E-01    -5.421010862E-17
     2151     3.834864687E+00    -5.780128494E-01     0.000000000E+00
     2152     4.417449998E+00    -6.658234563E-01     5.421010862E-17
     2153     3.561401101E+00    -8.128665629E-01     3.449077795E+00
     2154     3.737443040E+00    -8.530469866E-01     3.226809424E+00
     2155     3.535017096E+00    -8.068445859E-01     3.613036767E+00
     2156     3.818807940E+00    -8.716179942E-01     3.725655889E+00
     2157     3.670680682E+00    -1.132255041E+00     3.482993458E+00
     2158     3.393521955E+00    -7.745492434E-01     3.562237506E+00
     2159     3.307816468E+00    -7.549875250E-01     3.192429189E+00
     2160     3.381797237E+00    -1.043146299E+00     3.385866581E+00
     2161     3.789464954E+00    -8.649206485E-01     2.605812864E+00
     2162     3.486924399E+00    -7.958677414E-01     2.965414686E+00
     2163     4.052441158E+00    -9.249432515E-01     3.186024136E+00
     2164     3.751668955E+00    -1.157236614E+00     2.927150540E+00
     2165     3.810484552E+00    -8.697182342E-01     1.896801688E+00
     2166     3.505616360E+00    -8.001340591E-01     2.246836353E+00
     2167     4.093705231E+00    -9.343615062E-01     2.368200985E+00
     2168     3.773922375E+00    -1.164100885E+00     2.268680074E+00
     2169     3.523189715E+00    -8.041450622E-01     1.502247671E+00
     2170     3.822700744E+00    -8.725064999E-01     1.157110128E+00
     2171     4.116956762E+00    -9.396685161E-01     1.579662146E+00
     2172     3.794638365E+00    -1.170490921E+00     1.526794597E+00
     2173     3.186000187E+00    -7.271837542E-01     3.669463840E+00
     2174     3.427400850E+00    -7.822818803E-01     3.987029397E+00
     2175     3.324463835E+00    -1.025461287E+00     3.714631597E+00
     2176     3.107786432E+00    -7.093319748E-01     3.300244094E+00
     2177     3.045568000E+00    -6.951310240E-01     3.953939284E+00
     2178     2.818772655E+00    -6.433664662E-01     3.592100493E+00
     2179     2.958266899E+00    -9.125044917E-01     3.606916420E+00
     2180     3.203075561E+00    -7.310810961E-01     2.593052459E+00
     2181     2.913942634E+00    -6.650883926E-01     2.921861351E+00
     2182     3.155844214E+00    -9.734490217E-01     2.977664627E+00
     2183     3.218319604E+00    -7.345604491E-01     1.834222193E+00
     2184     2.921519433E+00    -6.668177471E-01     2.177252959E+00
     2185     3.171418931E+00    -9.782531855E-01     2.205039928E+00
     2186     3.226568211E+00    -7.364431394E-01     1.095046247E+00
     2187     2.928959454E+00    -6.685158829E-01     1.448490635E+00
     2188     3.186631524E+00    -9.829456484E-01     1.463852852E+00
     2189     3.526079240E+00    -8.048045770E-01     7.499087036E-01
     2190     2.929767478E+00    -6.687003088E-01     7.177760113E-01
     2191     3.225779044E+00    -7.362630167E-01     3.606331542E-01
     2192     3.188441432E+00    -9.835039310E-01     7.216148360E-01
     2193     4.118820614E+00    -9.400939277E-01     8.031243919E-01
     2194     3.820493614E+00    -8.720027365E-01     3.890673777E-01
     2195     3.799055724E+00    -1.171853496E+00     7.733821422E-01
     2196     4.413076632E+00    -1.007255944E+00     1.225676411E+00
     2197     4.706435305E+00    -1.074213146E+00     8.336002158E-01
     2198     4.410485024E+00    -1.006664426E+00     4.137473945E-01
     2199     4.400128452E+00    -1.357259878E+00     8.182651158E-01
     2200     4.400176624E+00    -1.004311602E+00     2.032404209E+00
     2201     4.706654843E+00    -1.074263255E+00     1.651214370E+00
     2202     4.400412201E+00    -1.357347403E+00     1.608927159E+00
     2203     4.355409679E+00    -9.940938390E-01     2.936613585E+00
     2204     4.693536923E+00    -1.071269176E+00     2.485629196E+00
     2205     4.373599726E+00    -1.349076850E+00     2.431317364E+00
     2206     4.133806058E+00    -9.435142591E-01     3.684870600E+00
     2207     4.456404050E+00    -1.017145146E+00     3.894920538E+00
     2208     4.666454551E+00    -1.065087802E+00     3.388564525E+00
     2209     4.316485705E+00    -1.331459508E+00     3.391425674E+00
     2210     3.720299317E+00    -8.491340442E-01     4.100364038E+00
     2211     4.029591196E+00    -9.197278972E-01     4.275349249E+00
     2212     3.904112974E+00    -1.204259367E+00     3.930938707E+00
     2213     3.301362669E+00    -7.535144881E-01     4.264919341E+00
     2214     3.591484689E+00    -8.197329461E-01     4.521876962E+00
     2215     3.454493354E+00    -1.065570082E+00     4.231306784E+00
     2216     3.150840687E+00    -7.191588282E-01     4.655018934E+00
     2217     2.860102417E+00    -6.527997150E-01     4.289884635E+00
     2218     3.037584441E+00    -9.369707134E-01     4.288992968E+00
     2219     2.632158294E+00    -6.007729543E-01     3.571428571E-01
     2220     2.928169859E+00    -6.683356623E-01    -5.421010862E-17
     2221     2.579902426E+00    -7.957945067E-01     0.000000000E+00
     2222     2.632158294E+00    -6.007729546E-01     1.071428571E+00
     2223     2.579902426E+00    -7.957945070E-01     7.142857143E-01
     2224     3.520192990E+00    -8.034610786E-01    -5.421010862E-17
     2225     3.185177939E+00    -9.824972763E-01    -5.421010862E-17
     2226     2.940363554E+00    -6.711187961E-01     5.000000000E+00
     2227     2.632158293E+00    -6.007729565E-01     4.642857143E+00
     2228     2.579902425E+00    -7.957945087E-01     5.000000000E+00
     2229     3.467542299E+00    -7.914439046E-01     4.899815944E+00
     2230     3.184075435E+00    -9.821572012E-01     5.000000000E+00
     2231     2.632158293E+00    -6.007729561E-01     3.928571429E+00
     2232     2.579902426E+00    -7.957945085E-01     4.285714286E+00
     2233     3.905489269E+00    -8.914024424E-01     4.699447833E+00
     2234     3.638408462E+00    -1.122300380E+00     4.787924690E+00
     2235     2.632158293E+00    -6.007729557E-01     3.214285714E+00
     2236     2.579902426E+00    -7.957945082E-01     3.571428571E+00
     2237     4.781383208E+00    -1.091319518E+00     4.298711609E+00
     2238     5.000009250E+00    -1.141219485E+00     3.778675392E+00
     2239     5.001407584E+00    -1.542729929E+00     4.151698863E+00
     2240     4.343436238E+00    -9.913609802E-01     4.499079721E+00
     2241     4.547074514E+00    -1.402586737E+00     4.363774071E+00
     2242     4.092741488E+00    -1.262443558E+00     4.575849381E+00
     2243     5.000000797E+00    -1.141217555E+00     2.938969749E+00
     2244     5.000115287E+00    -1.542331308E+00     3.321359090E+00
     2245     2.632158293E+00    -6.007729554E-01     2.500000000E+00
     2246     2.579902426E+00    -7.957945079E-01     2.857142857E+00
     2247     5.000000745E+00    -1.141217543E+00     2.099264106E+00
     2248     5.000108283E+00    -1.542329147E+00     2.491019318E+00
     2249     2.632158293E+00    -6.007729550E-01     1.785714286E+00
     2250     2.579902426E+00    -7.957945076E-01     2.142857143E+00
     2251     2.579902426E+00    -7.957945073E-01     1.428571429E+00
     2252     5.000006543E+00    -1.141218866E+00     4.198528213E-01
     2253     4.704239252E+00    -1.073711911E+00    -1.084202172E-16
     2254     5.001004478E+00    -1.542605585E+00     1.471641819E-12
     2255     5.000000693E+00    -1.141217531E+00     1.259558464E+00
     2256     5.000101279E+00    -1.542326986E+00     1.660679545E+00
     2257     5.000094274E+00    -1.542324825E+00     8.303397726E-01
     2258     4.112216121E+00    -9.385864949E-01    -5.421010862E-17
     2259     3.790453452E+00    -1.169200046E+00     0.000000000E+00
     2260     4.395728965E+00    -1.355902816E+00     5.421010862E-17
     2261     3.481041908E+00    -1.366208274E+00     3.415167409E+00
     2262     3.671266934E+00    -1.440866095E+00     3.186367415E+00
     2263     3.449846635E+00    -1.353965032E+00     3.580147264E+00
     2264     3.746821003E+00    -1.470518882E+00     3.682388258E+00
     2265     3.579455994E+00    -1.723775157E+00     3.431859322E+00
     2266     3.301668323E+00    -1.295809330E+00     3.534524147E+00
     2267     3.218884084E+00    -1.263318910E+00     3.167742187E+00
     2268     3.273982958E+00    -1.576667096E+00     3.348275296E+00
     2269     3.728685819E+00    -1.463401347E+00     2.574019567E+00
     2270     3.410942571E+00    -1.338696312E+00     2.935985997E+00
     2271     4.004306292E+00    -1.571574411E+00     3.134009506E+00
     2272     3.675740067E+00    -1.770143122E+00     2.877503418E+00
     2273     3.750759062E+00    -1.472064456E+00     1.875221183E+00
     2274     3.430572186E+00    -1.346400368E+00     2.223739914E+00
     2275     4.048215651E+00    -1.588807565E+00     2.328227845E+00
     2276     3.699343773E+00    -1.781510068E+00     2.228266968E+00
     2277     3.449027434E+00    -1.353643518E+00     1.486217913E+00
     2278     3.763599847E+00    -1.477104093E+00     1.140853924E+00
     2279     4.072632503E+00    -1.598390473E+00     1.552555290E+00
     2280     3.721314767E+00    -1.792090741E+00     1.498656240E+00
     2281     3.084016577E+00    -1.210387314E+00     3.649347126E+00
     2282     3.332807771E+00    -1.308030662E+00     3.958144499E+00
     2283     3.204992856E+00    -1.543443214E+00     3.679730089E+00
     2284     3.005713636E+00    -1.179655674E+00     3.282932247E+00
     2285     2.934734871E+00    -1.151798562E+00     3.941103661E+00
     2286     2.705546296E+00    -1.061848675E+00     3.585322263E+00
     2287     2.825048602E+00    -1.360471704E+00     3.589180489E+00
     2288     3.112827420E+00    -1.221694736E+00     2.577368334E+00
     2289     2.809061635E+00    -1.102475451E+00     2.911541469E+00
     2290     3.043314021E+00    -1.465582790E+00     2.950664052E+00
     2291     3.128836212E+00    -1.227977724E+00     1.823486917E+00
     2292     2.817121611E+00    -1.105638758E+00     2.169602827E+00
     2293     3.060083288E+00    -1.473658443E+00     2.185024426E+00
     2294     3.137510000E+00    -1.231381935E+00     1.089692760E+00
     2295     2.824935235E+00    -1.108705380E+00     1.443215649E+00
     2296     3.076219903E+00    -1.481429427E+00     1.450051587E+00
     2297     3.452082413E+00    -1.354842509E+00     7.443287710E-01
     2298     2.825794063E+00    -1.109042445E+00     7.177760113E-01
     2299     3.136691468E+00    -1.231060685E+00     3.606331542E-01
     2300     3.078158912E+00    -1.482363205E+00     7.214094495E-01
     2301     4.074610915E+00    -1.599166942E+00     7.868223094E-01
     2302     3.761302459E+00    -1.476202434E+00     3.835659460E-01
     2303     3.726020567E+00    -1.794356934E+00     7.589884145E-01
     2304     4.383643571E+00    -1.720453322E+00     1.198523675E+00
     2305     4.691741381E+00    -1.841372802E+00     8.120747713E-01
     2306     4.380930120E+00    -1.719388371E+00     4.030635002E-01
     2307     4.363757837E+00    -2.101475017E+00     7.903121989E-01
     2308     4.370086288E+00    -1.715132481E+00     1.993940295E+00
     2309     4.691964353E+00    -1.841460312E+00     1.613220917E+00
     2310     4.364040069E+00    -2.101610933E+00     1.566253401E+00
     2311     4.323074203E+00    -1.696681597E+00     2.880868272E+00
     2312     4.678191938E+00    -1.836055038E+00     2.428999415E+00
     2313     4.335607480E+00    -2.087918520E+00     2.368249658E+00
     2314     4.079860361E+00    -1.601227199E+00     3.630030349E+00
     2315     4.415758429E+00    -1.733057476E+00     3.828309345E+00
     2316     4.647689067E+00    -1.824083543E+00     3.314082439E+00
     2317     4.270022052E+00    -2.056334243E+00     3.310014384E+00
     2318     3.635230007E+00    -1.426722644E+00     4.060831749E+00
     2319     3.957816078E+00    -1.553328347E+00     4.224523050E+00
     2320     3.817108151E+00    -1.838222403E+00     3.868863452E+00
     2321     3.192087369E+00    -1.252801975E+00     4.245798721E+00
     2322     3.488432603E+00    -1.369108908E+00     4.493492573E+00
     2323     3.335493581E+00    -1.606289051E+00     4.192493485E+00
     2324     3.026979842E+00    -1.188002046E+00     4.646146398E+00
     2325     2.743090545E+00    -1.076583707E+00     4.284025423E+00
     2326     2.894976463E+00    -1.394147187E+00     4.273661742E+00
     2327     2.513218698E+00    -9.863656537E-01     3.571428571E-01
     2328     2.824116103E+00    -1.108383894E+00     0.000000000E+00
     2329     2.432480031E+00    -1.171420644E+00     5.421010862E-17
     2330     2.513218698E+00    -9.863656539E-01     1.071428571E+00
     2331     2.432480031E+00    -1.171420644E+00     7.142857143E-01
     2332     3.445910913E+00    -1.352420374E+00     5.421010862E-17
     2333     3.074696524E+00    -1.480695806E+00     1.084202172E-16
     2334     2.807497056E+00    -1.101861400E+00     5.000000000E+00
     2335     2.513218697E+00    -9.863656549E-01     4.642857143E+00
     2336     2.432480031E+00    -1.171420644E+00     5.000000000E+00
     2337     3.339134154E+00    -1.310513585E+00     4.886265028E+00
     2338     3.002129009E+00    -1.445749134E+00     5.000000000E+00
     2339     2.513218697E+00    -9.863656547E-01     3.928571429E+00
     2340     2.432480031E+00    -1.171420644E+00     4.285714286E+00
     2341     3.813851631E+00    -1.496826466E+00     4.658795083E+00
     2342     3.502120630E+00    -1.686532408E+00     4.752467330E+00
     2343     2.513218697E+00    -9.863656545E-01     3.214285714E+00
     2344     2.432480031E+00    -1.171420644E+00     3.571428571E+00
     2345     4.763286585E+00    -1.869452226E+00     4.203855194E+00
     2346     5.000048144E+00    -1.962374291E+00     3.681101440E+00
     2347     5.002096510E+00    -2.408882721E+00     4.009871854E+00
     2348     4.288569108E+00    -1.683139346E+00     4.431325138E+00
     2349     4.502103871E+00    -2.168098956E+00     4.257401991E+00
     2350     4.002112251E+00    -1.927315682E+00     4.504934661E+00
     2351     5.000010136E+00    -1.962359373E+00     2.863078898E+00
     2352     5.000366421E+00    -2.408049554E+00     3.207897483E+00
     2353     2.513218697E+00    -9.863656543E-01     2.500000000E+00
     2354     2.432480031E+00    -1.171420644E+00     2.857142857E+00
     2355     5.000009265E+00    -1.962359031E+00     2.045056355E+00
     2356     5.000338164E+00    -2.408035946E+00     2.405923113E+00
     2357     2.513218698E+00    -9.863656541E-01     1.785714286E+00
     2358     2.432480031E+00    -1.171420644E+00     2.142857143E+00
     2359     2.432480031E+00    -1.171420644E+00     1.428571429E+00
     2360     5.000030537E+00    -1.962367379E+00     4.090112711E-01
     2361     4.689500534E+00    -1.840493334E+00     5.421010862E-17
     2362     5.001346002E+00    -2.408521294E+00     5.229107078E-13
     2363     5.000008395E+00    -1.962358689E+00     1.227033813E+00
     2364     5.000309906E+00    -2.408022337E+00     1.603948742E+00
     2365     5.000281649E+00    -2.408008729E+00     8.019743709E-01
     2366     4.067705724E+00    -1.596456854E+00     1.084202172E-16
     2367     3.716913016E+00    -1.789970969E+00     1.084202172E-16
     2368     4.359129509E+00    -2.099246132E+00     1.084202172E-16
     2369     3.362566488E+00    -1.941378667E+00     3.359149931E+00
     2370     3.573734231E+00    -2.063296421E+00     3.119562642E+00
     2371     3.324240084E+00    -1.919250907E+00     3.525814872E+00
     2372     3.640584528E+00    -2.101892457E+00     3.610912460E+00
     2373     3.281899496E+00    -2.237561189E+00     3.432525691E+00
     2374     3.166240522E+00    -1.828029818E+00     3.488742077E+00
     2375     3.087867938E+00    -1.782781385E+00     3.126961768E+00
     2376     3.001874519E+00    -2.046643392E+00     3.348765328E+00
     2377     3.639141479E+00    -2.101059313E+00     2.521502093E+00
     2378     3.299035682E+00    -1.904699139E+00     2.887374479E+00
     2379     3.933339967E+00    -2.270914889E+00     3.048089397E+00
     2380     3.370576395E+00    -2.298020075E+00     2.878149518E+00
     2381     3.662771562E+00    -2.114702147E+00     1.839573618E+00
     2382     3.320048901E+00    -1.916831127E+00     2.185588266E+00
     2383     3.981157731E+00    -2.298522487E+00     2.262198569E+00
     2384     3.392233184E+00    -2.312785424E+00     2.228792898E+00
     2385     3.339802875E+00    -1.928236089E+00     1.459739300E+00
     2386     3.676470601E+00    -2.122611291E+00     1.114001260E+00
     2387     4.007296487E+00    -2.313613706E+00     1.507779069E+00
     2388     3.412387091E+00    -2.326526125E+00     1.499022428E+00
     2389     2.933696684E+00    -1.693770570E+00     3.616113614E+00
     2390     3.193280285E+00    -1.843641232E+00     3.910425640E+00
     2391     2.938313246E+00    -2.003308050E+00     3.680185840E+00
     2392     2.855324100E+00    -1.648522138E+00     3.254333305E+00
     2393     2.771460242E+00    -1.600103317E+00     3.919898764E+00
     2394     2.538808599E+00    -1.465781828E+00     3.574124391E+00
     2395     2.590298352E+00    -1.766035513E+00     3.589412087E+00
     2396     2.979943104E+00    -1.720470953E+00     2.551460652E+00
     2397     2.654653450E+00    -1.532664884E+00     2.894494628E+00
     2398     2.790736488E+00    -1.902691920E+00     2.951015456E+00
     2399     2.997080215E+00    -1.730365069E+00     1.805753948E+00
     2400     2.663427603E+00    -1.537730644E+00     2.156966024E+00
     2401     2.806132711E+00    -1.913188887E+00     2.185284905E+00
     2402     3.006319126E+00    -1.735699156E+00     1.080849649E+00
     2403     2.671790560E+00    -1.542558999E+00     1.434502210E+00
     2404     2.820924738E+00    -1.923273921E+00     1.450231194E+00
     2405     3.342986852E+00    -1.930074359E+00     7.351116090E-01
     2406     2.672666514E+00    -1.543064731E+00     7.177760113E-01
     2407     3.005399271E+00    -1.735168078E+00     3.606331542E-01
     2408     2.822289154E+00    -1.924204164E+00     7.214121224E-01
     2409     4.009325379E+00    -2.314785087E+00     7.598938594E-01
     2410     3.673923799E+00    -2.121140895E+00     3.744784549E-01
     2411     3.416281898E+00    -2.329181560E+00     7.591757323E-01
     2412     4.340151265E+00    -2.505787501E+00     1.153671669E+00
     2413     4.669936067E+00    -2.696188845E+00     7.765181573E-01
     2414     4.337203311E+00    -2.504085499E+00     3.854154045E-01
     2415     4.001000157E+00    -2.727835719E+00     7.906759739E-01
     2416     4.325682656E+00    -2.497434046E+00     1.930404020E+00
     2417     4.670215198E+00    -2.696350002E+00     1.550461770E+00
     2418     4.001684492E+00    -2.728302290E+00     1.566808750E+00
     2419     4.275356218E+00    -2.468378064E+00     2.788785873E+00
     2420     4.655467458E+00    -2.687835390E+00     2.335456014E+00
     2421     3.975582333E+00    -2.710506139E+00     2.369070411E+00
     2422     4.000190264E+00    -2.309510926E+00     3.539439215E+00
     2423     4.355600446E+00    -2.514707090E+00     3.718273440E+00
     2424     4.619888761E+00    -2.667294020E+00     3.191049129E+00
     2425     3.915228800E+00    -2.669357797E+00     3.311074301E+00
     2426     3.509624729E+00    -2.026282782E+00     3.995523228E+00
     2427     3.851724873E+00    -2.223794393E+00     4.140557979E+00
     2428     3.499403747E+00    -2.385853076E+00     3.869673094E+00
     2429     3.031043843E+00    -1.749973979E+00     4.214210790E+00
     2430     3.336458281E+00    -1.926305086E+00     4.446600572E+00
     2431     3.057895080E+00    -2.084837563E+00     4.193000316E+00
     2432     2.844567357E+00    -1.642311729E+00     4.631488659E+00
     2433     2.570789592E+00    -1.484246063E+00     4.274345801E+00
     2434     2.654484273E+00    -1.809796733E+00     4.273861940E+00
     2435     2.338137949E+00    -1.349924574E+00     3.571428571E-01
     2436     2.670870705E+00    -1.542027921E+00     1.084202172E-16
     2437     2.230720051E+00    -1.520879179E+00     1.084202172E-16
     2438     2.338137949E+00    -1.349924574E+00     1.071428571E+00
     2439     2.230720051E+00    -1.520879179E+00     7.142857143E-01
     2440     3.336336218E+00    -1.926234614E+00     1.084202172E-16
     2441     2.819110732E+00    -1.922037153E+00     1.084202172E-16
     2442     2.611915714E+00    -1.507990241E+00     5.000000000E+00
     2443     2.338137949E+00    -1.349924574E+00     4.642857143E+00
     2444     2.230720052E+00    -1.520879178E+00     5.000000000E+00
     2445     3.149981795E+00    -1.818642837E+00     4.863878441E+00
     2446     2.753119982E+00    -1.877045420E+00     5.000000000E+00
     2447     2.338137949E+00    -1.349924574E+00     3.928571429E+00
     2448     2.230720052E+00    -1.520879178E+00     4.285714286E+00
     2449     3.678558425E+00    -2.123816697E+00     4.591635323E+00
     2450     3.210782565E+00    -2.189074486E+00     4.752930339E+00
     2451     2.338137949E+00    -1.349924574E+00     3.214285714E+00
     2452     2.230720052E+00    -1.520879179E+00     3.571428571E+00
     2453     4.735711685E+00    -2.734164416E+00     4.047149087E+00
     2454     5.000000000E+00    -2.886751346E+00     3.519924775E+00
     2455     4.583768918E+00    -3.125160731E+00     4.011717569E+00
     2456     4.207135055E+00    -2.428990556E+00     4.319392205E+00
     2457     4.126107731E+00    -2.813132617E+00     4.258791017E+00
     2458     3.668445148E+00    -2.501103552E+00     4.505860678E+00
     2459     5.000000000E+00    -2.886751346E+00     2.737719270E+00
     2460     4.585014285E+00    -3.126009808E+00     3.209374056E+00
     2461     2.338137949E+00    -1.349924574E+00     2.500000000E+00
     2462     2.230720052E+00    -1.520879179E+00     2.857142857E+00
     2463     5.000000000E+00    -2.886751346E+00     1.955513764E+00
     2464     4.585033632E+00    -3.126022999E+00     2.407030542E+00
     2465     2.338137949E+00    -1.349924574E+00     1.785714286E+00
     2466     2.230720052E+00    -1.520879179E+00     2.142857143E+00
     2467     2.230720052E+00    -1.520879179E+00     1.428571429E+00
     2468     5.000000000E+00    -2.886751346E+00     3.911027528E-01
     2469     4.667267244E+00    -2.694647999E+00     2.168404345E-16
     2470     4.584282775E+00    -3.125511074E+00    -4.804641927E-13
     2471     5.000000000E+00    -2.886751346E+00     1.173308258E+00
     2472     4.585052979E+00    -3.126036190E+00     1.604687028E+00
     2473     4.585072326E+00    -3.126049381E+00     8.023435139E-01
     2474     4.001801731E+00    -2.310441307E+00     2.168404345E-16
     2475     3.407501413E+00    -2.323195127E+00     2.168404345E-16
     2476     3.995892094E+00    -2.724353100E+00     2.168404345E-16
     2477     2.923524365E+00    -2.331432881E+00     3.415339750E+00
     2478     3.083348661E+00    -2.458888504E+00     3.186574245E+00
     2479     2.897280975E+00    -2.310504476E+00     3.580313716E+00
     2480     3.146673482E+00    -2.509388363E+00     3.682607718E+00
     2481     2.815587234E+00    -2.612483166E+00     3.483404384E+00
     2482     2.772842685E+00    -2.211268251E+00     3.534664141E+00
     2483     2.703411427E+00    -2.155898670E+00     3.167868021E+00
     2484     2.594018008E+00    -2.406896969E+00     3.386168725E+00
     2485     3.131588956E+00    -2.497358856E+00     2.574182577E+00
     2486     2.864754603E+00    -2.284565560E+00     2.936136883E+00
     2487     3.363071746E+00    -2.681960221E+00     3.134276087E+00
     2488     2.877958043E+00    -2.670354821E+00     2.927549209E+00
     2489     3.150108655E+00    -2.512127824E+00     1.875331831E+00
     2490     2.881228566E+00    -2.297703108E+00     2.223858334E+00
     2491     3.399933131E+00    -2.711356195E+00     2.328432794E+00
     2492     2.895031306E+00    -2.686196494E+00     2.269004593E+00
     2493     2.896701971E+00    -2.310042736E+00     1.486300100E+00
     2494     3.160630618E+00    -2.520518809E+00     1.140937273E+00
     2495     3.420412639E+00    -2.727688057E+00     1.552694271E+00
     2496     2.910918944E+00    -2.700938068E+00     1.527020549E+00
     2497     2.590057242E+00    -2.065501724E+00     3.649448227E+00
     2498     2.798937220E+00    -2.232077948E+00     3.958289665E+00
     2499     2.549845973E+00    -2.365911310E+00     3.714912391E+00
     2500     2.524345920E+00    -2.013098694E+00     3.283019687E+00
     2501     2.464741181E+00    -1.965565500E+00     3.941168169E+00
     2502     2.272301366E+00    -1.812099869E+00     3.585356328E+00
     2503     2.269151015E+00    -2.105464450E+00     3.607059112E+00
     2504     2.614384686E+00    -2.084902214E+00     2.577448750E+00
     2505     2.359281920E+00    -1.881464547E+00     2.911594362E+00
     2506     2.420911172E+00    -2.246277298E+00     2.977881450E+00
     2507     2.627820260E+00    -2.095616727E+00     1.823541959E+00
     2508     2.366047392E+00    -1.886859831E+00     2.169642050E+00
     2509     2.432866493E+00    -2.257370216E+00     2.205200654E+00
     2510     2.634843512E+00    -2.101217584E+00     1.089720208E+00
     2511     2.372597817E+00    -1.892083621E+00     1.443242695E+00
     2512     2.444528747E+00    -2.268191206E+00     1.463963676E+00
     2513     2.898772159E+00    -2.311693657E+00     7.443573804E-01
     2514     2.373069559E+00    -1.892459823E+00     7.177760113E-01
     2515     2.633904292E+00    -2.100468581E+00     3.606331542E-01
     2516     2.445626085E+00    -2.269209388E+00     7.216164852E-01
     2517     3.421562874E+00    -2.728605340E+00     7.869058931E-01
     2518     3.158195929E+00    -2.518577210E+00     3.835941528E-01
     2519     2.914011920E+00    -2.703807932E+00     7.734977245E-01
     2520     3.681344895E+00    -2.935774588E+00     1.198662892E+00
     2521     3.940070179E+00    -3.142101117E+00     8.121851362E-01
     2522     3.678778070E+00    -2.933727614E+00     4.031182785E-01
     2523     3.375083848E+00    -3.131620161E+00     8.184895790E-01
     2524     3.670227199E+00    -2.926908521E+00     1.994137506E+00
     2525     3.940529203E+00    -3.142467177E+00     1.613415716E+00
     2526     3.375601600E+00    -3.132100563E+00     1.609269832E+00
     2527     3.630776224E+00    -2.895447418E+00     2.881154089E+00
     2528     3.928994041E+00    -3.133268191E+00     2.429289766E+00
     2529     3.355027533E+00    -3.113010619E+00     2.431823801E+00
     2530     3.426396567E+00    -2.732460080E+00     3.630309559E+00
     2531     3.708454567E+00    -2.957393829E+00     3.828648360E+00
     2532     3.903381286E+00    -3.112842700E+00     3.314463935E+00
     2533     3.311091749E+00    -3.072244168E+00     3.392079563E+00
     2534     3.052852016E+00    -2.434568241E+00     4.061030531E+00
     2535     3.323738799E+00    -2.650593242E+00     4.224779316E+00
     2536     2.994408626E+00    -2.778405170E+00     3.931437796E+00
     2537     2.680833587E+00    -2.137893443E+00     4.245894815E+00
     2538     2.929649357E+00    -2.336317399E+00     4.493635224E+00
     2539     2.649544246E+00    -2.458417788E+00     4.231619050E+00
     2540     2.542251714E+00    -2.027378087E+00     4.646190988E+00
     2541     2.303842498E+00    -1.837253082E+00     4.284054870E+00
     2542     2.330029951E+00    -2.161951847E+00     4.289116313E+00
     2543     2.110827062E+00    -1.683328411E+00     3.571428571E-01
     2544     2.371661795E+00    -1.891337169E+00     1.084202172E-16
     2545     1.979129472E+00    -1.836363787E+00     5.421010862E-17
     2546     2.110827063E+00    -1.683328410E+00     1.071428571E+00
     2547     1.979129472E+00    -1.836363787E+00     7.142857143E-01
     2548     2.893331259E+00    -2.307354685E+00     1.626303259E-16
     2549     2.443119982E+00    -2.266884065E+00     1.084202172E-16
     2550     2.357988492E+00    -1.880433071E+00     5.000000000E+00
     2551     2.110827063E+00    -1.683328409E+00     4.642857143E+00
     2552     1.979129474E+00    -1.836363785E+00     5.000000000E+00
     2553     2.804385763E+00    -2.236423016E+00     4.886333130E+00
     2554     2.442610805E+00    -2.266411613E+00     5.000000000E+00
     2555     2.110827063E+00    -1.683328409E+00     3.928571429E+00
     2556     1.979129474E+00    -1.836363785E+00     4.285714286E+00
     2557     3.202857448E+00    -2.554193581E+00     4.658999391E+00
     2558     2.790676052E+00    -2.589368966E+00     4.788209957E+00
     2559     2.110827063E+00    -1.683328410E+00     3.214285714E+00
     2560     1.979129474E+00    -1.836363785E+00     3.571428571E+00
     2561     3.999800817E+00    -3.189734710E+00     4.204331913E+00
     2562     4.199415747E+00    -3.348922306E+00     3.681601719E+00
     2563     3.834871109E+00    -3.558240390E+00     4.152837740E+00
     2564     3.601329132E+00    -2.871964145E+00     4.431665652E+00
     2565     3.486806544E+00    -3.235283670E+00     4.364629870E+00
     2566     3.138741298E+00    -2.912326318E+00     4.576419913E+00
     2567     4.199434095E+00    -3.348936938E+00     2.863468004E+00
     2568     3.835601953E+00    -3.558918516E+00     3.322270192E+00
     2569     2.110827063E+00    -1.683328410E+00     2.500000000E+00
     2570     1.979129473E+00    -1.836363786E+00     2.857142857E+00
     2571     4.199428633E+00    -3.348932582E+00     2.045334288E+00
     2572     3.835605783E+00    -3.558922069E+00     2.491702644E+00
     2573     2.110827063E+00    -1.683328410E+00     1.785714286E+00
     2574     1.979129473E+00    -1.836363786E+00     2.142857143E+00
     2575     1.979129473E+00    -1.836363786E+00     1.428571429E+00
     2576     4.199305247E+00    -3.348834186E+00     4.090668577E-01
     2577     3.936670189E+00    -3.139389717E+00     2.168404345E-16
     2578     3.835091513E+00    -3.558444899E+00    -1.632916892E-12
     2579     4.199423171E+00    -3.348928227E+00     1.227200573E+00
     2580     3.835609612E+00    -3.558925623E+00     1.661135096E+00
     2581     3.835613441E+00    -3.558929177E+00     8.305675481E-01
     2582     3.415000724E+00    -2.723372201E+00     1.626303259E-16
     2583     2.907110493E+00    -2.697404343E+00     1.084202172E-16
     2584     3.371101003E+00    -3.127924621E+00     2.168404345E-16
     2585     2.484601631E+00    -2.677763710E+00     3.449162773E+00
     2586     2.607454137E+00    -2.810167222E+00     3.226910390E+00
     2587     2.466171330E+00    -2.657900568E+00     3.613119394E+00
     2588     2.664152609E+00    -2.871273642E+00     3.725764445E+00
     2589     2.349429079E+00    -2.946090875E+00     3.511536118E+00
     2590     2.367459203E+00    -2.551514197E+00     3.562307206E+00
     2591     2.307714609E+00    -2.487124839E+00     3.192490945E+00
     2592     2.173657106E+00    -2.725679793E+00     3.406849741E+00
     2593     2.643766789E+00    -2.849302954E+00     2.605892117E+00
     2594     2.432696949E+00    -2.621823766E+00     2.965488043E+00
     2595     2.827229390E+00    -3.047028613E+00     3.186153826E+00
     2596     2.394717416E+00    -3.002880654E+00     2.954863103E+00
     2597     2.658431853E+00    -2.865108136E+00     1.896855483E+00
     2598     2.445737903E+00    -2.635878573E+00     2.246893927E+00
     2599     2.856022133E+00    -3.078059811E+00     2.368300627E+00
     2600     2.408228264E+00    -3.019822723E+00     2.291238294E+00
     2601     2.457996612E+00    -2.649090321E+00     1.502287629E+00
     2602     2.666918788E+00    -2.874254877E+00     1.157150650E+00
     2603     2.872243908E+00    -3.095542728E+00     1.579729717E+00
     2604     2.420799204E+00    -3.035586185E+00     1.542501167E+00
     2605     2.222682316E+00    -2.395481821E+00     3.669514586E+00
     2606     2.391065295E+00    -2.576955513E+00     3.987102262E+00
     2607     2.141906062E+00    -2.685865242E+00     3.734113396E+00
     2608     2.168141704E+00    -2.336701022E+00     3.300287637E+00
     2609     2.124735752E+00    -2.289920530E+00     3.953971664E+00
     2610     1.966531958E+00    -2.119417392E+00     3.592117592E+00
     2611     1.916364250E+00    -2.403044755E+00     3.616816504E+00
     2612     2.234668171E+00    -2.408399503E+00     2.593091556E+00
     2613     2.032951751E+00    -2.191000905E+00     2.921887081E+00
     2614     2.033080828E+00    -2.549402716E+00     2.992736098E+00
     2615     2.245303580E+00    -2.419861748E+00     1.834248953E+00
     2616     2.038238607E+00    -2.196698781E+00     2.177272029E+00
     2617     2.042443206E+00    -2.561142768E+00     2.216212396E+00
     2618     2.251022597E+00    -2.426025384E+00     1.095059592E+00
     2619     2.043428285E+00    -2.202291925E+00     1.448503784E+00
     2620     2.051670910E+00    -2.572713944E+00     1.471556590E+00
     2621     2.459944774E+00    -2.651189941E+00     7.499226129E-01
     2622     2.043957892E+00    -2.202862707E+00     7.177760113E-01
     2623     2.250437595E+00    -2.425394903E+00     3.606331542E-01
     2624     2.052498304E+00    -2.573751464E+00     7.217294808E-01
     2625     2.873474334E+00    -3.096868812E+00     8.031650287E-01
     2626     2.665309866E+00    -2.872520873E+00     3.890810913E-01
     2627     2.423205429E+00    -3.038603497E+00     7.814165873E-01
     2628     3.078799454E+00    -3.318156663E+00     1.225744095E+00
     2629     3.283464479E+00    -3.538733101E+00     8.336538730E-01
     2630     3.076954987E+00    -3.316168801E+00     4.137740266E-01
     2631     2.788124489E+00    -3.496197524E+00     8.338681745E-01
     2632     3.069834570E+00    -3.308494815E+00     2.032500090E+00
     2633     3.283651712E+00    -3.538934890E+00     1.651309077E+00
     2634     2.788576809E+00    -3.496764714E+00     1.632747255E+00
     2635     3.038601578E+00    -3.274833653E+00     2.936752543E+00
     2636     3.274498854E+00    -3.529070454E+00     2.485770359E+00
     2637     2.772297434E+00    -3.476351022E+00     2.466521173E+00
     2638     2.883927862E+00    -3.108135033E+00     3.685007881E+00
     2639     3.108970921E+00    -3.350673768E+00     3.895087322E+00
     2640     3.255589802E+00    -3.508691341E+00     3.388750303E+00
     2641     2.739495745E+00    -3.435219003E+00     3.436868729E+00
     2642     2.595373003E+00    -2.797146855E+00     4.100463732E+00
     2643     2.811137404E+00    -3.029685575E+00     4.275477220E+00
     2644     2.494902897E+00    -3.128509272E+00     3.965588656E+00
     2645     2.303170473E+00    -2.482227423E+00     4.264967575E+00
     2646     2.505542715E+00    -2.700332829E+00     4.521948565E+00
     2647     2.223695223E+00    -2.788425605E+00     4.252972120E+00
     2648     2.198196029E+00    -2.369091880E+00     4.655041316E+00
     2649     1.995369808E+00    -2.150497201E+00     4.289899415E+00
     2650     1.969993441E+00    -2.470293632E+00     4.297550761E+00
     2651     1.836363787E+00    -1.979129472E+00     3.571428571E-01
     2652     2.042843490E+00    -2.201661668E+00     1.626303259E-16
     2653     1.683328411E+00    -2.110827062E+00     1.084202172E-16
     2654     1.836363788E+00    -1.979129471E+00     1.071428571E+00
     2655     1.683328411E+00    -2.110827062E+00     7.142857143E-01
     2656     2.455802896E+00    -2.646726059E+00     2.168404345E-16
     2657     2.050514441E+00    -2.571263780E+00     1.626303259E-16
     2658     2.051387705E+00    -2.210870134E+00     5.000000000E+00
     2659     1.836363790E+00    -1.979129469E+00     4.642857143E+00
     2660     1.683328415E+00    -2.110827059E+00     5.000000000E+00
     2661     2.419129551E+00    -2.607201587E+00     4.899850128E+00
     2662     2.077537740E+00    -2.605149916E+00     5.000000000E+00
     2663     1.836363790E+00    -1.979129470E+00     3.928571429E+00
     2664     1.683328415E+00    -2.110827059E+00     4.285714286E+00
     2665     2.724565416E+00    -2.936383161E+00     4.699550384E+00
     2666     2.346314179E+00    -2.942184911E+00     4.807716762E+00
     2667     1.836363789E+00    -1.979129470E+00     3.214285714E+00
     2668     1.683328414E+00    -2.110827060E+00     3.571428571E+00
     2669     3.335437145E+00    -3.594746309E+00     4.298950896E+00
     2670     3.488318860E+00    -3.759513613E+00     3.778918617E+00
     2671     3.152643032E+00    -3.953289314E+00     4.230865382E+00
     2672     3.030001280E+00    -3.265564735E+00     4.499250640E+00
     2673     2.883867057E+00    -3.616254900E+00     4.423150287E+00
     2674     2.615090618E+00    -3.279219906E+00     4.615433525E+00
     2675     3.488322858E+00    -3.759517923E+00     2.939158925E+00
     2676     3.152658691E+00    -3.953308950E+00     3.384692306E+00
     2677     1.836363789E+00    -1.979129471E+00     2.500000000E+00
     2678     1.683328413E+00    -2.110827060E+00     2.857142857E+00
     2679     3.488322881E+00    -3.759517948E+00     2.099399232E+00
     2680     3.152656155E+00    -3.953305772E+00     2.538519229E+00
     2681     1.836363788E+00    -1.979129471E+00     1.785714286E+00
     2682     1.683328413E+00    -2.110827061E+00     2.142857143E+00
     2683     1.683328412E+00    -2.110827061E+00     1.428571429E+00
     2684     3.488320059E+00    -3.759514909E+00     4.198798464E-01
     2685     3.281721707E+00    -3.536854841E+00     2.168404345E-16
     2686     3.152072531E+00    -3.952573935E+00    -7.331483511E-12
     2687     3.488322903E+00    -3.759517973E+00     1.259639539E+00
     2688     3.152653620E+00    -3.953302594E+00     1.692346153E+00
     2689     3.152651084E+00    -3.953299417E+00     8.461730764E-01
     2690     2.868762301E+00    -3.091790450E+00     2.168404345E-16
     2691     2.417700471E+00    -3.031700499E+00     1.084202172E-16
     2692     2.784886501E+00    -3.492137217E+00     2.168404345E-16
     2693     2.034765968E+00    -2.984453528E+00     3.465125773E+00
     2694     2.130177927E+00    -3.124397170E+00     3.245947955E+00
     2695     2.021225021E+00    -2.964592606E+00     3.628601896E+00
     2696     2.177770250E+00    -3.194202285E+00     3.746132327E+00
     2697     1.872402079E+00    -3.243095520E+00     3.520612363E+00
     2698     1.943204292E+00    -2.850157213E+00     3.575353102E+00
     2699     1.893977036E+00    -2.777954091E+00     3.204112084E+00
     2700     1.734710887E+00    -3.004607381E+00     3.413522244E+00
     2701     2.158031862E+00    -3.165251390E+00     2.620858366E+00
     2702     1.991468653E+00    -2.920948031E+00     2.979341187E+00
     2703     2.302974905E+00    -3.377843787E+00     3.210638996E+00
     2704     1.906743945E+00    -3.302577379E+00     2.963674826E+00
     2705     2.169604448E+00    -3.182225258E+00     1.907014203E+00
     2706     2.001759656E+00    -2.936042163E+00     2.257766252E+00
     2707     2.325530693E+00    -3.410927054E+00     2.387117423E+00
     2708     1.917319886E+00    -3.320895448E+00     2.298411098E+00
     2709     2.011433665E+00    -2.950231330E+00     1.509833413E+00
     2710     2.176307798E+00    -3.192057269E+00     1.164803030E+00
     2711     2.338331789E+00    -3.429702816E+00     1.592489890E+00
     2712     1.927163015E+00    -3.337944252E+00     1.547495362E+00
     2713     1.828869063E+00    -2.682458233E+00     3.678984463E+00
     2714     1.963111275E+00    -2.879355394E+00     4.000699732E+00
     2715     1.710730308E+00    -2.963071798E+00     3.740308967E+00
     2716     1.784723284E+00    -2.617708269E+00     3.308437085E+00
     2717     1.752078293E+00    -2.569826860E+00     3.960013991E+00
     2718     1.624654891E+00    -2.382931056E+00     3.595308421E+00
     2719     1.533275567E+00    -2.655711171E+00     3.619964914E+00
     2720     1.835196449E+00    -2.691738807E+00     2.600474638E+00
     2721     1.676044008E+00    -2.458305048E+00     2.926745023E+00
     2722     1.623709780E+00    -2.812347826E+00     2.997528365E+00
     2723     1.843589169E+00    -2.704048668E+00     1.839302434E+00
     2724     1.680186340E+00    -2.464380735E+00     2.180873221E+00
     2725     1.631011749E+00    -2.824995210E+00     2.219764889E+00
     2726     1.848108234E+00    -2.710676921E+00     1.097579671E+00
     2727     1.684281847E+00    -2.470387743E+00     1.450986910E+00
     2728     1.638238292E+00    -2.837511952E+00     1.474006136E+00
     2729     2.012982367E+00    -2.952502860E+00     7.525492880E-01
     2730     1.684705488E+00    -2.471009112E+00     7.177760113E-01
     2731     1.847652347E+00    -2.710008259E+00     3.606331542E-01
     2732     1.638995214E+00    -2.838822982E+00     7.217659342E-01
     2733     2.339314460E+00    -3.431144131E+00     8.108390058E-01
     2734     2.175049698E+00    -3.190211976E+00     3.916708133E-01
     2735     1.929157408E+00    -3.341398644E+00     7.839712881E-01
     2736     2.501338451E+00    -3.668789678E+00     1.238525866E+00
     2737     2.662847153E+00    -3.905679436E+00     8.437866746E-01
     2738     2.499888926E+00    -3.666663617E+00     4.188033203E-01
     2739     2.214787311E+00    -3.836124148E+00     8.388294563E-01
     2740     2.494258125E+00    -3.658404744E+00     2.050606439E+00
     2741     2.662989286E+00    -3.905887905E+00     1.669193963E+00
     2742     2.215028513E+00    -3.836541919E+00     1.640321296E+00
     2743     2.469611279E+00    -3.622254458E+00     2.962993869E+00
     2744     2.655766730E+00    -3.895294358E+00     2.512428035E+00
     2745     2.202284794E+00    -3.814469146E+00     2.477714876E+00
     2746     2.350567227E+00    -3.447648902E+00     3.710823369E+00
     2747     2.528995742E+00    -3.709355466E+00     3.926443873E+00
     2748     2.641439266E+00    -3.874279827E+00     3.423811743E+00
     2749     2.177143152E+00    -3.770922543E+00     3.451318469E+00
     2750     2.125834004E+00    -3.118025802E+00     4.119073416E+00
     2751     2.296749595E+00    -3.368712931E+00     4.299403398E+00
     2752     1.987338345E+00    -3.442170972E+00     3.976607384E+00
     2753     1.896121665E+00    -2.781099682E+00     4.273968544E+00
     2754     2.058219202E+00    -3.018853101E+00     4.535310422E+00
     2755     1.775541722E+00    -3.075328458E+00     4.259862097E+00
     2756     1.815274319E+00    -2.662518403E+00     4.659218033E+00
     2757     1.649084811E+00    -2.418763166E+00     4.292657620E+00
     2758     1.576761348E+00    -2.731030750E+00     4.300272297E+00
     2759     1.520879180E+00    -2.230720051E+00     3.571428571E-01
     2760     1.683826038E+00    -2.469719198E+00     5.421010862E-17
     2761     1.349924574E+00    -2.338137949E+00     1.626303259E-16
     2762     1.520879180E+00    -2.230720051E+00     1.071428571E+00
     2763     1.349924575E+00    -2.338137948E+00     7.142857143E-01
     2764     2.009719757E+00    -2.947717492E+00     1.084202172E-16
     2765     1.637443431E+00    -2.836135217E+00     1.626303259E-16
     2766     1.698962306E+00    -2.491920012E+00     5.000000000E+00
     2767     1.520879185E+00    -2.230720048E+00     4.642857143E+00
     2768     1.349924582E+00    -2.338137945E+00     5.000000000E+00
     2769     1.995470417E+00    -2.926817537E+00     4.906229177E+00
     2770     1.666055915E+00    -2.885693475E+00     5.000000000E+00
     2771     1.520879184E+00    -2.230720048E+00     3.928571429E+00
     2772     1.349924581E+00    -2.338137945E+00     4.285714286E+00
     2773     2.232320398E+00    -3.274212655E+00     4.718687531E+00
     2774     1.874542283E+00    -3.246802458E+00     4.814011007E+00
     2775     1.520879183E+00    -2.230720049E+00     3.214285714E+00
     2776     1.349924580E+00    -2.338137946E+00     3.571428571E+00
     2777     2.706020360E+00    -3.969002891E+00     4.343604240E+00
     2778     2.824498017E+00    -4.142777699E+00     3.824850189E+00
     2779     2.500000007E+00    -4.330127015E+00     4.256037845E+00
     2780     2.469170379E+00    -3.621607773E+00     4.531145886E+00
     2781     2.291515018E+00    -3.969020422E+00     4.442033021E+00
     2782     2.083028650E+00    -3.607911440E+00     4.628022014E+00
     2783     2.824498162E+00    -4.142777914E+00     2.974883481E+00
     2784     2.500000005E+00    -4.330127016E+00     3.404830276E+00
     2785     1.520879182E+00    -2.230720049E+00     2.500000000E+00
     2786     1.349924579E+00    -2.338137947E+00     2.857142857E+00
     2787     2.824498161E+00    -4.142777915E+00     2.124916772E+00
     2788     2.500000004E+00    -4.330127017E+00     2.553622707E+00
     2789     1.520879181E+00    -2.230720050E+00     1.785714286E+00
     2790     1.349924578E+00    -2.338137947E+00     2.142857143E+00
     2791     1.349924576E+00    -2.338137948E+00     1.428571429E+00
     2792     2.824498037E+00    -4.142777737E+00     4.249833544E-01
     2793     2.661507194E+00    -3.903714080E+00     1.626303259E-16
     2794     2.500000000E+00    -4.330127019E+00    -5.421010862E-17
     2795     2.824498160E+00    -4.142777916E+00     1.274950063E+00
     2796     2.500000003E+00    -4.330127017E+00     1.702415138E+00
     2797     2.500000001E+00    -4.330127018E+00     8.512075689E-01
     2798     2.335613476E+00    -3.425715786E+00     1.626303259E-16
     2799     1.924962287E+00    -3.334132484E+00     2.168404345E-16
     2800     2.212481144E+00    -3.832129751E+00     2.168404345E-16
     2801     1.567252541E+00    -3.254433418E+00     3.465072950E+00
     2802     1.640726530E+00    -3.407003730E+00     3.245884949E+00
     2803     1.556832639E+00    -3.232796269E+00     3.628550668E+00
     2804     1.677410948E+00    -3.483179707E+00     3.746064931E+00
     2805     1.376679832E+00    -3.507722982E+00     3.511523858E+00
     2806     1.496737803E+00    -3.108008056E+00     3.575309938E+00
     2807     1.458801548E+00    -3.029232612E+00     3.204073626E+00
     2808     1.273683582E+00    -3.245292817E+00     3.406840663E+00
     2809     1.662172609E+00    -3.451536974E+00     2.620808832E+00
     2810     1.533881198E+00    -3.185137114E+00     2.979295337E+00
     2811     1.773813218E+00    -3.683361086E+00     3.210557958E+00
     2812     1.403213530E+00    -3.575329745E+00     2.954851578E+00
     2813     1.671086107E+00    -3.470046047E+00     1.906980581E+00
     2814     1.541807593E+00    -3.201596445E+00     2.257730268E+00
     2815     1.791184668E+00    -3.719433277E+00     2.387055145E+00
     2816     1.411130914E+00    -3.595502916E+00     2.291228912E+00
     2817     1.549259669E+00    -3.217070844E+00     1.509808438E+00
     2818     1.676266616E+00    -3.480803489E+00     1.164777703E+00
     2819     1.801044665E+00    -3.739907776E+00     1.592447658E+00
     2820     1.418499772E+00    -3.614278465E+00     1.542494635E+00
     2821     1.408672929E+00    -2.925139461E+00     3.678953134E+00
     2822     1.512083051E+00    -3.139872789E+00     4.000654748E+00
     2823     1.255081688E+00    -3.197895961E+00     3.734104635E+00
     2824     1.374659986E+00    -2.854510858E+00     3.308410122E+00
     2825     1.349515655E+00    -2.802298113E+00     3.959994001E+00
     2826     1.251361664E+00    -2.598479253E+00     3.595297865E+00
     2827     1.122919338E+00    -2.861151787E+00     3.616812053E+00
     2828     1.413516177E+00    -2.935196574E+00     2.600450202E+00
     2829     1.290933020E+00    -2.680650023E+00     2.926728945E+00
     2830     1.191307710E+00    -3.035402521E+00     2.992729821E+00
     2831     1.419980465E+00    -2.948619810E+00     1.839285708E+00
     2832     1.294123263E+00    -2.687274634E+00     2.180861302E+00
     2833     1.196794019E+00    -3.049381414E+00     2.216207749E+00
     2834     1.423478532E+00    -2.955883624E+00     1.097571330E+00
     2835     1.297278232E+00    -2.693825998E+00     1.450978692E+00
     2836     1.202204064E+00    -3.063165988E+00     1.471553386E+00
     2837     1.550485479E+00    -3.219616269E+00     7.525405945E-01
     2838     1.297621131E+00    -2.694538040E+00     7.177760113E-01
     2839     1.423144150E+00    -2.955189277E+00     3.606331542E-01
     2840     1.202773766E+00    -3.064617571E+00     7.217294331E-01
     2841     1.801835559E+00    -3.741550088E+00     8.108136072E-01
     2842     1.675331217E+00    -3.478861116E+00     3.916622420E-01
     2843     1.419995920E+00    -3.618090592E+00     7.814132460E-01
     2844     1.926613608E+00    -4.000654375E+00     1.238483562E+00
     2845     2.051011621E+00    -4.258969512E+00     8.437531380E-01
     2846     1.925515135E+00    -3.998373376E+00     4.187866747E-01
     2847     1.633825044E+00    -4.162918313E+00     8.338616855E-01
     2848     1.921143015E+00    -3.989294566E+00     2.050546512E+00
     2849     2.051104236E+00    -4.259161824E+00     1.669134770E+00
     2850     1.634002464E+00    -4.163370367E+00     1.632737349E+00
     2851     1.902159384E+00    -3.949874647E+00     2.962907018E+00
     2852     2.045541258E+00    -4.247610177E+00     2.512339806E+00
     2853     1.624462240E+00    -4.139062268E+00     2.466506532E+00
     2854     1.810497637E+00    -3.759537063E+00     3.710737940E+00
     2855     1.947936138E+00    -4.044931051E+00     3.926340109E+00
     2856     2.034511633E+00    -4.224706922E+00     3.423695702E+00
     2857     1.605242449E+00    -4.090091033E+00     3.436849642E+00
     2858     1.637430891E+00    -3.400160261E+00     4.119011849E+00
     2859     1.769080894E+00    -3.673534309E+00     4.299324238E+00
     2860     1.461925836E+00    -3.724926254E+00     3.965573478E+00
     2861     1.460471122E+00    -3.032699513E+00     4.273938766E+00
     2862     1.585336889E+00    -3.291985948E+00     4.535266217E+00
     2863     1.303007793E+00    -3.320009683E+00     4.252962377E+00
     2864     1.398184871E+00    -2.903360780E+00     4.659204215E+00
     2865     1.270176831E+00    -2.637549347E+00     4.292648495E+00
     2866     1.154343486E+00    -2.941219207E+00     4.297546913E+00
     2867     1.171420644E+00    -2.432480031E+00     3.571428571E-01
     2868     1.296943663E+00    -2.693131267E+00     1.626303259E-16
     2869     9.863656536E-01    -2.513218698E+00     1.626303259E-16
     2870     1.171420646E+00    -2.432480030E+00     1.071428571E+00
     2871     9.863656552E-01    -2.513218697E+00     7.142857143E-01
     2872     1.547989703E+00    -3.214433739E+00     2.168404345E-16
     2873     1.201612093E+00    -3.061657681E+00     1.626303259E-16
     2874     1.308584898E+00    -2.717304516E+00     5.000000000E+00
     2875     1.171420652E+00    -2.432480027E+00     4.642857143E+00
     2876     9.863656648E-01    -2.513218693E+00     5.000000000E+00
     2877     1.536983674E+00    -3.191579462E+00     4.906208073E+00
     2878     1.217357155E+00    -3.101775412E+00     5.000000000E+00
     2879     1.171420651E+00    -2.432480027E+00     3.928571429E+00
     2880     9.863656632E-01    -2.513218694E+00     4.285714286E+00
     2881     1.719452737E+00    -3.570480377E+00     4.718624220E+00
     2882     1.374857092E+00    -3.503078708E+00     4.807707862E+00
     2883     1.171420650E+00    -2.432480028E+00     3.214285714E+00
     2884     9.863656616E-01    -2.513218695E+00     3.571428571E+00
     2885     2.084390863E+00    -4.328282206E+00     4.343456514E+00
     2886     2.175502194E+00    -4.517476835E+00     3.824698169E+00
     2887     1.847357067E+00    -4.706989014E+00     4.230832459E+00
     2888     1.901921800E+00    -3.949381291E+00     4.531040367E+00
     2889     1.689856966E+00    -4.305685299E+00     4.423123587E+00
     2890     1.532357029E+00    -3.904382003E+00     4.615415725E+00
     2891     2.175501849E+00    -4.517476123E+00     2.974765243E+00
     2892     1.847338762E+00    -4.706942380E+00     3.384665967E+00
     2893     1.171420648E+00    -2.432480029E+00     2.500000000E+00
     2894     9.863656600E-01    -2.513218695E+00     2.857142857E+00
     2895     2.175501847E+00    -4.517476124E+00     2.124832316E+00
     2896     1.847338735E+00    -4.706942317E+00     2.538499475E+00
     2897     1.171420647E+00    -2.432480029E+00     1.785714286E+00
     2898     9.863656584E-01    -2.513218696E+00     2.142857143E+00
     2899     9.863656568E-01    -2.513218696E+00     1.428571429E+00
     2900     2.175502130E+00    -4.517476719E+00     4.249664632E-01
     2901     2.050081781E+00    -4.257038684E+00     3.252606517E-16
     2902     1.847351411E+00    -4.706974629E+00    -5.720250662E-13
     2903     2.175501846E+00    -4.517476125E+00     1.274899390E+00
     2904     1.847338709E+00    -4.706942254E+00     1.692332983E+00
     2905     1.847338682E+00    -4.706942191E+00     8.461664917E-01
     2906     1.799035742E+00    -3.735736212E+00     2.710505431E-16
     2907     1.416858532E+00    -3.610096663E+00     2.168404345E-16
     2908     1.632104971E+00    -4.158535646E+00     2.168404345E-16
     2909     1.076737617E+00    -3.490697587E+00     3.449075884E+00
     2910     1.129961220E+00    -3.663244273E+00     3.226806199E+00
     2911     1.068760863E+00    -3.464837586E+00     3.613035426E+00
     2912     1.154560888E+00    -3.742994435E+00     3.725653770E+00
     2913     8.547787528E-01    -3.745030363E+00     3.482992689E+00
     2914     1.025981872E+00    -3.326151503E+00     3.562236568E+00
     2915     1.000069940E+00    -3.242147086E+00     3.192427529E+00
     2916     7.875074616E-01    -3.450295580E+00     3.385866084E+00
     2917     1.145689231E+00    -3.714233238E+00     2.605810028E+00
     2918     1.054220527E+00    -3.417698979E+00     2.965412060E+00
     2919     1.225196247E+00    -3.971988647E+00     3.186019575E+00
     2920     8.736381789E-01    -3.827658915E+00     2.927149385E+00
     2921     1.152044197E+00    -3.734835538E+00     1.896799763E+00
     2922     1.059871765E+00    -3.436019851E+00     2.246834293E+00
     2923     1.237671822E+00    -4.012433476E+00     2.368197419E+00
     2924     8.788202543E-01    -3.850363080E+00     2.268679133E+00
     2925     1.065184810E+00    -3.453244325E+00     1.502246241E+00
     2926     1.155737582E+00    -3.746809204E+00     1.157108677E+00
     2927     1.244701580E+00    -4.035223398E+00     1.579659728E+00
     2928     8.836443135E-01    -3.871498675E+00     1.526793942E+00
     2929     9.632407001E-01    -3.122749618E+00     3.669463538E+00
     2930     1.036224742E+00    -3.359358068E+00     3.987028964E+00
     2931     7.741564565E-01    -3.391801000E+00     3.714631494E+00
     2932     9.395938455E-01    -3.046088402E+00     3.300243515E+00
     2933     9.207830139E-01    -2.985105177E+00     3.953939092E+00
     2934     8.522147021E-01    -2.762812174E+00     3.592100391E+00
     2935     6.888814172E-01    -3.018186643E+00     3.606916368E+00
     2936     9.684029871E-01    -3.139485351E+00     2.593051060E+00
     2937     8.809878844E-01    -2.856092546E+00     2.921860444E+00
     2938     7.348905344E-01    -3.219765765E+00     2.977664008E+00
     2939     9.730117981E-01    -3.154426757E+00     1.834221235E+00
     2940     8.832786148E-01    -2.863518918E+00     2.177252277E+00
     2941     7.385173623E-01    -3.235655947E+00     2.205039462E+00
     2942     9.755056417E-01    -3.162511606E+00     1.095045769E+00
     2943     8.855279941E-01    -2.870811234E+00     1.448490165E+00
     2944     7.420598641E-01    -3.251176672E+00     1.463852530E+00
     2945     1.066058413E+00    -3.456076485E+00     7.499082058E-01
     2946     8.857722864E-01    -2.871603217E+00     7.177760113E-01
     2947     9.752670466E-01    -3.161738107E+00     3.606331542E-01
     2948     7.424813297E-01    -3.253023244E+00     7.216148312E-01
     2949     1.245265086E+00    -4.037050248E+00     8.031229377E-01
     2950     1.155070286E+00    -3.744645892E+00     3.890668869E-01
     2951     8.846729671E-01    -3.876005511E+00     7.733818072E-01
     2952     1.334229084E+00    -4.325464443E+00     1.225673989E+00
     2953     1.422921781E+00    -4.612999107E+00     8.335982956E-01
     2954     1.333445548E+00    -4.322924287E+00     4.137464414E-01
     2955     1.024642694E+00    -4.489252951E+00     8.182644652E-01
     2956     1.330328958E+00    -4.312820536E+00     2.032400778E+00
     2957     1.422988157E+00    -4.613214286E+00     1.651210981E+00
     2958     1.024708771E+00    -4.489542443E+00     1.608926166E+00
     2959     1.316794330E+00    -4.268942342E+00     2.936608612E+00
     2960     1.419022149E+00    -4.600356794E+00     2.485624144E+00
     2961     1.018465044E+00    -4.462186877E+00     2.431315896E+00
     2962     1.249795915E+00    -4.051738808E+00     3.684867146E+00
     2963     1.347328747E+00    -4.367932480E+00     3.894916434E+00
     2964     1.410834230E+00    -4.573812207E+00     3.388558164E+00
     2965     1.005165117E+00    -4.403916074E+00     3.391423982E+00
     2966     1.124778399E+00    -3.646441972E+00     4.100363369E+00
     2967     1.218288310E+00    -3.949593656E+00     4.275347881E+00
     2968     9.091373545E-01    -3.983190952E+00     3.930938089E+00
     2969     9.981188484E-01    -3.235821792E+00     4.264919055E+00
     2970     1.085833084E+00    -3.520184358E+00     4.521876537E+00
     2971     8.044359883E-01    -3.524464289E+00     4.231306670E+00
     2972     9.526106315E-01    -3.088287773E+00     4.655018801E+00
     2973     8.647101430E-01    -2.803321392E+00     4.289884547E+00
     2974     7.073518174E-01    -3.099110744E+00     4.288992923E+00
     2975     7.957945076E-01    -2.579902426E+00     3.571428571E-01
     2976     8.852892678E-01    -2.870037316E+00     1.626303259E-16
     2977     6.007729541E-01    -2.632158294E+00     2.168404345E-16
     2978     7.957945095E-01    -2.579902425E+00     1.071428571E+00
     2979     6.007729563E-01    -2.632158293E+00     7.142857143E-01
     2980     1.064278790E+00    -3.450307095E+00     2.168404345E-16
     2981     7.417213692E-01    -3.249693649E+00     2.710505431E-16
     2982     8.889758661E-01    -2.881988927E+00     5.000000000E+00
     2983     7.957945189E-01    -2.579902422E+00     4.642857143E+00
     2984     6.007729692E-01    -2.632158290E+00     5.000000000E+00
     2985     1.048360772E+00    -3.398702102E+00     4.899815741E+00
     2986     7.414646482E-01    -3.248568811E+00     5.000000000E+00
     2987     7.957945170E-01    -2.579902423E+00     3.928571429E+00
     2988     6.007729671E-01    -2.632158291E+00     4.285714286E+00
     2989     1.180767891E+00    -3.827955442E+00     4.699447223E+00
     2990     8.472636599E-01    -3.712104571E+00     4.787924586E+00
     2991     7.957945151E-01    -2.579902424E+00     3.214285714E+00
     2992     6.007729649E-01    -2.632158291E+00     3.571428571E+00
     2993     1.445582130E+00    -4.686462123E+00     4.298710188E+00
     2994     1.511679571E+00    -4.900744767E+00     3.778666687E+00
     2995     1.164660419E+00    -5.102710641E+00     4.151695562E+00
     2996     1.313175011E+00    -4.257208783E+00     4.499078706E+00
     2997     1.058861683E+00    -4.639176091E+00     4.363773758E+00
     2998     9.530626716E-01    -4.175640331E+00     4.575849172E+00
     2999     1.511677013E+00    -4.900736482E+00     2.938962979E+00
     3000     1.164359556E+00    -5.101392485E+00     3.321356449E+00
     3001     7.957945133E-01    -2.579902424E+00     2.500000000E+00
     3002     6.007729627E-01    -2.632158292E+00     2.857142857E+00
     3003     1.511676995E+00    -4.900736432E+00     2.099259271E+00
     3004     1.164357923E+00    -5.101385346E+00     2.491017337E+00
     3005     7.957945114E-01    -2.579902425E+00     1.785714286E+00
     3006     6.007729606E-01    -2.632158292E+00     2.142857143E+00
     3007     6.007729584E-01    -2.632158293E+00     1.428571429E+00
     3008     1.511678744E+00    -4.900742118E+00     4.198518542E-01
     3009     1.422257835E+00    -4.610846653E+00     2.710505431E-16
     3010     1.164566614E+00    -5.102299715E+00    -1.057482010E-11
     3011     1.511676977E+00    -4.900736382E+00     1.259555562E+00
     3012     1.164356291E+00    -5.101378207E+00     1.660678225E+00
     3013     1.164354659E+00    -5.101371068E+00     8.303391124E-01
     3014     1.243268312E+00    -4.030576874E+00     2.710505431E-16
     3015     8.826697842E-01    -3.867229004E+00     2.168404345E-16
     3016     1.023618199E+00    -4.484764360E+00     2.710505431E-16
     3017     5.573498197E-01    -3.697774363E+00     3.415169360E+00
     3018     5.878068114E-01    -3.899843305E+00     3.186370717E+00
     3019     5.523551106E-01    -3.664636630E+00     3.580148629E+00
     3020     5.999036895E-01    -3.980100836E+00     3.682390418E+00
     3021     2.968949503E-01    -3.961787608E+00     3.431858406E+00
     3022     5.286302736E-01    -3.507232622E+00     3.534525099E+00
     3023     5.153757484E-01    -3.419294601E+00     3.167743885E+00
     3024     2.715577483E-01    -3.623686148E+00     3.348274699E+00
     3025     5.970001771E-01    -3.960837316E+00     2.574022473E+00
     3026     5.461262828E-01    -3.623311073E+00     2.935988686E+00
     3027     6.411297885E-01    -4.253618144E+00     3.134014178E+00
     3028     3.048811328E-01    -4.068355835E+00     2.877502077E+00
     3029     6.005343232E-01    -3.984284859E+00     1.875223156E+00
     3030     5.492691796E-01    -3.644162846E+00     2.223742025E+00
     3031     6.481601217E-01    -4.300261376E+00     2.328231498E+00
     3032     3.068389195E-01    -4.094480717E+00     2.228265877E+00
     3033     5.522240480E-01    -3.663767135E+00     1.486219378E+00
     3034     6.025902597E-01    -3.997925123E+00     1.140855410E+00
     3035     6.520695030E-01    -4.326198444E+00     1.552557767E+00
     3036     3.086612821E-01    -4.118798493E+00     1.498655480E+00
     3037     4.937820392E-01    -3.276029691E+00     3.649347426E+00
     3038     5.336159734E-01    -3.540310569E+00     3.958144930E+00
     3039     2.658354367E-01    -3.547327190E+00     3.679729932E+00
     3040     4.812449837E-01    -3.192851771E+00     3.282932834E+00
     3041     4.698805713E-01    -3.117453806E+00     3.941103852E+00
     3042     4.331852003E-01    -2.873995935E+00     3.585322364E+00
     3043     2.343212716E-01    -3.126799886E+00     3.589180408E+00
     3044     4.983950422E-01    -3.306634991E+00     2.577369768E+00
     3045     4.497590796E-01    -2.983956455E+00     2.911542398E+00
     3046     2.524250949E-01    -3.368378652E+00     2.950663334E+00
     3047     5.009582084E-01    -3.323640505E+00     1.823487898E+00
     3048     4.510495613E-01    -2.992518259E+00     2.169603526E+00
     3049     2.538160042E-01    -3.386939086E+00     2.185023886E+00
     3050     5.023469668E-01    -3.332854332E+00     1.089693249E+00
     3051     4.523005988E-01    -3.000818367E+00     1.443216131E+00
     3052     2.551544392E-01    -3.404799297E+00     1.450051214E+00
     3053     5.527131784E-01    -3.667012320E+00     7.443292809E-01
     3054     4.524381033E-01    -3.001730666E+00     7.177760113E-01
     3055     5.022159091E-01    -3.331984837E+00     3.606331542E-01
     3056     2.553152658E-01    -3.406945417E+00     7.214094440E-01
     3057     6.523862640E-01    -4.328300034E+00     7.868237992E-01
     3058     6.022224220E-01    -3.995484698E+00     3.835664487E-01
     3059     3.090515979E-01    -4.124006933E+00     7.589880258E-01
     3060     7.018655074E-01    -4.656573355E+00     1.198526156E+00
     3061     7.511950697E-01    -4.983853625E+00     8.120767384E-01
     3062     7.014310538E-01    -4.653690962E+00     4.030644765E-01
     3063     3.619481714E-01    -4.829862650E+00     7.903114440E-01
     3064     6.996948526E-01    -4.642171983E+00     1.993943810E+00
     3065     7.512307726E-01    -4.984090480E+00     1.613224389E+00
     3066     3.619715838E-01    -4.830175028E+00     1.566252248E+00
     3067     6.921677474E-01    -4.592232882E+00     2.880873367E+00
     3068     7.490256731E-01    -4.969460582E+00     2.429004590E+00
     3069     3.596132700E-01    -4.798705476E+00     2.368247954E+00
     3070     6.532266667E-01    -4.333875675E+00     3.630033880E+00
     3071     7.070073055E-01    -4.690686896E+00     3.828313539E+00
     3072     7.441418402E-01    -4.937058447E+00     3.314088954E+00
     3073     3.541733538E-01    -4.726114791E+00     3.310012410E+00
     3074     5.820367730E-01    -3.861561582E+00     4.060832418E+00
     3075     6.336860330E-01    -4.204232028E+00     4.224524433E+00
     3076     3.166068224E-01    -4.224824239E+00     3.868862691E+00
     3077     5.110852690E-01    -3.390829106E+00     4.245799006E+00
     3078     5.585330814E-01    -3.705624766E+00     4.493492996E+00
     3079     2.766597129E-01    -3.691767092E+00     4.192493310E+00
     3080     4.846499428E-01    -3.215442167E+00     4.646146530E+00
     3081     4.391964198E-01    -2.913877754E+00     4.284025511E+00
     3082     2.401213792E-01    -3.204196908E+00     4.273661672E+00
     3083     4.023916367E-01    -2.669694064E+00     3.571428571E-01
     3084     4.521694425E-01    -2.999948235E+00     1.626303259E-16
     3085     2.017599795E-01    -2.692299823E+00     1.626303259E-16
     3086     4.023916391E-01    -2.669694064E+00     1.071428571E+00
     3087     2.017599823E-01    -2.692299823E+00     7.142857143E-01
     3088     5.517250565E-01    -3.660456577E+00     2.168404345E-16
     3089     2.550280783E-01    -3.403113202E+00     2.168404345E-16
     3090     4.495085828E-01    -2.982294469E+00     5.000000000E+00
     3091     4.023916513E-01    -2.669694062E+00     4.642857143E+00
     3092     2.017599986E-01    -2.692299821E+00     5.000000000E+00
     3093     5.346289708E-01    -3.547031346E+00     4.886265230E+00
     3094     2.490090468E-01    -3.322794553E+00     5.000000000E+00
     3095     4.023916489E-01    -2.669694062E+00     3.928571429E+00
     3096     2.017599959E-01    -2.692299822E+00     4.285714286E+00
     3097     6.106358860E-01    -4.051304285E+00     4.658795689E+00
     3098     2.904804508E-01    -3.876191993E+00     4.752467170E+00
     3099     4.023916464E-01    -2.669694063E+00     3.214285714E+00
     3100     2.017599931E-01    -2.692299822E+00     3.571428571E+00
     3101     7.626497165E-01    -5.059850163E+00     4.203856609E+00
     3102     8.005580986E-01    -5.311355857E+00     3.681110356E+00
     3103     4.148946410E-01    -5.536384023E+00     4.009868024E+00
     3104     6.866428012E-01    -4.555577224E+00     4.431326149E+00
     3105     3.734232589E-01    -4.982986875E+00     4.257401511E+00
     3106     3.319518549E-01    -4.429589434E+00     4.504934341E+00
     3107     8.005520097E-01    -5.311315478E+00     2.863085833E+00
     3108     4.147511360E-01    -5.534469122E+00     3.207894420E+00
     3109     4.023916440E-01    -2.669694063E+00     2.500000000E+00
     3110     2.017599904E-01    -2.692299822E+00     2.857142857E+00
     3111     8.005518676E-01    -5.311314555E+00     2.045061309E+00
     3112     4.147487892E-01    -5.534437847E+00     2.405920815E+00
     3113     4.023916415E-01    -2.669694063E+00     1.785714286E+00
     3114     2.017599877E-01    -2.692299822E+00     2.142857143E+00
     3115     2.017599850E-01    -2.692299822E+00     1.428571429E+00
     3116     8.005552681E-01    -5.311337154E+00     4.090122618E-01
     3117     7.508362846E-01    -4.981473261E+00     2.710505431E-16
     3118     4.148323744E-01    -5.535553338E+00    -1.183731932E-11
     3119     8.005517256E-01    -5.311313632E+00     1.227036785E+00
     3120     4.147464424E-01    -5.534406573E+00     1.603947210E+00
     3121     4.147440956E-01    -5.534375298E+00     8.019736049E-01
     3122     6.512806706E-01    -4.320964919E+00     2.710505431E-16
     3123     3.082961770E-01    -4.113926580E+00     2.710505431E-16
     3124     3.615642757E-01    -4.824739959E+00     2.710505431E-16
     3125     1.402831611E-08    -3.882757334E+00     3.359149931E+00
     3126     1.302776341E-08    -4.126592841E+00     3.119562642E+00
     3127     1.472433433E-08    -3.838501814E+00     3.525814872E+00
     3128     1.507971566E-08    -4.203784915E+00     3.610912460E+00
     3129    -2.968350693E-01    -3.960988934E+00     3.432525689E+00
     3130     1.456951228E-08    -3.656059635E+00     3.488742077E+00
     3131     1.305866211E-08    -3.565562771E+00     3.126961768E+00
     3132    -2.715078962E-01    -3.623021292E+00     3.348765327E+00
     3133     1.053017113E-08    -4.202118626E+00     2.521502093E+00
     3134     1.205810941E-08    -3.809398278E+00     2.887374479E+00
     3135     1.272928107E-08    -4.541829778E+00     3.048089397E+00
     3136    -3.048555535E-01    -4.068014825E+00     2.878149517E+00
     3137     7.682333443E-09    -4.229404295E+00     1.839573618E+00
     3138     9.127342765E-09    -3.833662254E+00     2.185588266E+00
     3139     9.447280738E-09    -4.597044975E+00     2.262198569E+00
     3140    -3.068143290E-01    -4.094152828E+00     2.228792897E+00
     3141     6.096086373E-09    -3.856472178E+00     1.459739300E+00
     3142     4.652232190E-09    -4.245222583E+00     1.114001260E+00
     3143     6.296709434E-09    -4.627227411E+00     1.507779069E+00
     3144    -3.086371750E-01    -4.118476973E+00     1.499022427E+00
     3145     1.510143475E-08    -3.387541140E+00     3.616113614E+00
     3146     1.633052748E-08    -3.687282464E+00     3.910425640E+00
     3147    -2.657590239E-01    -3.546307943E+00     3.680185839E+00
     3148     1.359058459E-08    -3.297044276E+00     3.254333305E+00
     3149     1.637008766E-08    -3.200206634E+00     3.919898764E+00
     3150     1.492608036E-08    -2.931563657E+00     3.574124391E+00
     3151    -2.342824265E-01    -3.126281935E+00     3.589412087E+00
     3152     1.065528105E-08    -3.440941907E+00     2.551460652E+00
     3153     1.208784267E-08    -3.065329768E+00     2.894494628E+00
     3154    -2.524112817E-01    -3.368194657E+00     2.951015455E+00
     3155     7.541095695E-09    -3.460730137E+00     1.805753948E+00
     3156     9.007810297E-09    -3.075461288E+00     2.156966024E+00
     3157    -2.538038138E-01    -3.386776660E+00     2.185284904E+00
     3158     4.513784353E-09    -3.471398313E+00     1.080849649E+00
     3159     5.990690787E-09    -3.085117999E+00     1.434502210E+00
     3160    -2.551416985E-01    -3.404629447E+00     1.450231194E+00
     3161     3.069930170E-09    -3.860148718E+00     7.351116090E-01
     3162     2.997532423E-09    -3.086129463E+00     7.177760113E-01
     3163     1.506049969E-09    -3.470336156E+00     3.606331542E-01
     3164    -2.552651079E-01    -3.406276186E+00     7.214121224E-01
     3165     3.173426269E-09    -4.629570174E+00     7.598938594E-01
     3166     1.563871697E-09    -4.242281789E+00     3.744784549E-01
     3167    -3.089894485E-01    -4.123177692E+00     7.591757319E-01
     3168     4.817903513E-09    -5.011575002E+00     1.153671669E+00
     3169     3.242853495E-09    -5.392377691E+00     7.765181573E-01
     3170     1.609547693E-09    -5.008170998E+00     3.854154045E-01
     3171    -3.618749478E-01    -4.828885638E+00     7.906759731E-01
     3172     8.061656729E-09    -4.994868092E+00     1.930404020E+00
     3173     6.474960547E-09    -5.392700003E+00     1.550461770E+00
     3174    -3.619368398E-01    -4.829711576E+00     1.566808749E+00
     3175     1.164639068E-08    -4.936756127E+00     2.788785873E+00
     3176     9.753216693E-09    -5.375670780E+00     2.335456014E+00
     3177    -3.595759971E-01    -4.798208369E+00     2.369070409E+00
     3178     1.478123332E-08    -4.619021852E+00     3.539439215E+00
     3179     1.552807330E-08    -5.029414180E+00     3.718273440E+00
     3180     1.332630448E-08    -5.334588039E+00     3.191049129E+00
     3181    -3.541172499E-01    -4.725366507E+00     3.311074299E+00
     3182     1.668590881E-08    -4.052565564E+00     3.995523228E+00
     3183     1.729159698E-08    -4.447588785E+00     4.140557979E+00
     3184    -3.165074835E-01    -4.223499086E+00     3.869673092E+00
     3185     1.759918039E-08    -3.499947957E+00     4.214210790E+00
     3186     1.856967646E-08    -3.852610173E+00     4.446600572E+00
     3187    -2.765747348E-01    -3.690633607E+00     4.193000315E+00
     3188     1.934179622E-08    -3.284623459E+00     4.631488659E+00
     3189     1.785031229E-08    -2.968492126E+00     4.274345801E+00
     3190    -2.400877911E-01    -3.203749183E+00     4.273861939E+00
     3191     1.491472326E-09    -2.699849149E+00     3.571428571E-01
     3192    -1.012790401E-14    -3.084055842E+00     1.626303259E-16
     3193    -2.017599795E-01    -2.692299823E+00     1.626303259E-16
     3194     4.474438857E-09    -2.699849149E+00     1.071428571E+00
     3195    -2.017599763E-01    -2.692299823E+00     7.142857143E-01
     3196    -8.503662105E-15    -3.852469227E+00     2.168404345E-16
     3197    -2.549776353E-01    -3.402440087E+00     2.168404345E-16
     3198     2.088075545E-08    -3.015980482E+00     5.000000000E+00
     3199     1.938927152E-08    -2.699849149E+00     4.642857143E+00
     3200    -2.017599569E-01    -2.692299825E+00     5.000000000E+00
     3201     2.031229229E-08    -3.637285674E+00     4.863878441E+00
     3202    -2.490090051E-01    -3.322794556E+00     5.000000000E+00
     3203     1.640630498E-08    -2.699849149E+00     3.928571429E+00
     3204    -2.017599602E-01    -2.692299824E+00     4.285714286E+00
     3205     1.917536462E-08    -4.247633394E+00     4.591635323E+00
     3206    -2.904028126E-01    -3.875156514E+00     4.752930338E+00
     3207     1.342333845E-08    -2.699849149E+00     3.214285714E+00
     3208    -2.017599634E-01    -2.692299824E+00     3.571428571E+00
     3209     1.690150930E-08    -5.468328832E+00     4.047149087E+00
     3210     1.469974047E-08    -5.773502695E+00     3.519924775E+00
     3211    -4.145841086E-01    -5.532240704E+00     4.011717566E+00
     3212     1.803843696E-08    -4.857981113E+00     4.319392205E+00
     3213    -3.731904274E-01    -4.979880430E+00     4.258791014E+00
     3214    -3.317966200E-01    -4.427518472E+00     4.505860676E+00
     3215     1.143313049E-08    -5.773502697E+00     2.737719270E+00
     3216    -4.146967507E-01    -5.533743760E+00     3.209374053E+00
     3217     1.044037192E-08    -2.699849149E+00     2.500000000E+00
     3218    -2.017599666E-01    -2.692299824E+00     2.857142857E+00
     3219     8.166520511E-09    -5.773502695E+00     1.955513764E+00
     3220    -4.146985041E-01    -5.533767108E+00     2.407030539E+00
     3221     7.457405389E-09    -2.699849149E+00     1.785714286E+00
     3222    -2.017599699E-01    -2.692299824E+00     2.142857143E+00
     3223    -2.017599731E-01    -2.692299823E+00     1.428571429E+00
     3224     1.633300548E-09    -5.773502693E+00     3.911027528E-01
     3225    -5.255178294E-15    -5.389295999E+00     3.252606517E-16
     3226    -4.146306025E-01    -5.532860878E+00    -1.136124615E-11
     3227     4.899910529E-09    -5.773502694E+00     1.173308258E+00
     3228    -4.147002575E-01    -5.533790457E+00     1.604687026E+00
     3229    -4.147020108E-01    -5.533813805E+00     8.023435131E-01
     3230    -6.879420199E-15    -4.620882613E+00     2.710505431E-16
     3231    -3.081952910E-01    -4.112580350E+00     2.168404345E-16
     3232    -3.614129467E-01    -4.822720614E+00     2.168404345E-16
     3233    -5.573179049E-01    -3.697562814E+00     3.415339749E+00
     3234    -5.877855654E-01    -3.899702526E+00     3.186574244E+00
     3235    -5.523150685E-01    -3.664371168E+00     3.580313715E+00
     3236    -5.998573137E-01    -3.979793359E+00     3.682607717E+00
     3237    -8.546831568E-01    -3.744611660E+00     3.483404383E+00
     3238    -5.285931220E-01    -3.506986335E+00     3.534664140E+00
     3239    -5.153572893E-01    -3.419172311E+00     3.167868020E+00
     3240    -7.874249004E-01    -3.449933983E+00     3.386168724E+00
     3241    -5.969817226E-01    -3.960715022E+00     2.574182576E+00
     3242    -5.461144973E-01    -3.623233045E+00     2.936136882E+00
     3243    -6.411097967E-01    -4.253485683E+00     3.134276085E+00
     3244    -8.736160774E-01    -3.827562192E+00     2.927549208E+00
     3245    -6.005121771E-01    -3.984138034E+00     1.875331830E+00
     3246    -5.492549688E-01    -3.644068689E+00     2.223858333E+00
     3247    -6.481367679E-01    -4.300106564E+00     2.328432793E+00
     3248    -8.787987405E-01    -3.850268907E+00     2.269004592E+00
     3249    -5.522047018E-01    -3.663638864E+00     1.486300100E+00
     3250    -6.025180057E-01    -3.997445814E+00     1.140937272E+00
     3251    -6.520408254E-01    -4.326008268E+00     1.552694271E+00
     3252    -8.836215024E-01    -3.871398790E+00     1.527020549E+00
     3253    -4.937483277E-01    -3.275806234E+00     3.649448226E+00
     3254    -5.335675789E-01    -3.539989714E+00     3.958289664E+00
     3255    -7.740162943E-01    -3.391187049E+00     3.714912391E+00
     3256    -4.812216349E-01    -3.192697045E+00     3.283019687E+00
     3257    -4.698590482E-01    -3.117311230E+00     3.941168168E+00
     3258    -4.331738220E-01    -2.873920646E+00     3.585356328E+00
     3259    -6.888101769E-01    -3.017874654E+00     3.607059112E+00
     3260    -4.983859275E-01    -3.306574663E+00     2.577448749E+00
     3261    -4.497551209E-01    -2.983930354E+00     2.911594362E+00
     3262    -7.348776048E-01    -3.219709228E+00     2.977881450E+00
     3263    -5.009471844E-01    -3.323567468E+00     1.823541959E+00
     3264    -4.510448413E-01    -2.992487065E+00     2.169642050E+00
     3265    -7.385066961E-01    -3.235609298E+00     2.205200653E+00
     3266    -5.022860459E-01    -3.332450210E+00     1.089720208E+00
     3267    -4.522935668E-01    -3.000771794E+00     1.443242694E+00
     3268    -7.420468254E-01    -3.251119600E+00     1.463963676E+00
     3269    -5.525993499E-01    -3.666257159E+00     7.443573802E-01
     3270    -4.523834996E-01    -3.001368435E+00     7.177760113E-01
     3271    -5.021070038E-01    -3.331262318E+00     3.606331542E-01
     3272    -7.423799307E-01    -3.252579013E+00     7.216164852E-01
     3273    -6.522601010E-01    -4.327463041E+00     7.869058926E-01
     3274    -6.020538791E-01    -3.994366510E+00     3.835941526E-01
     3275    -8.845603922E-01    -3.875512317E+00     7.734977242E-01
     3276    -7.017829208E-01    -4.656025496E+00     1.198662891E+00
     3277    -7.511042962E-01    -4.983251428E+00     8.121851355E-01
     3278    -7.012936050E-01    -4.652779071E+00     4.031182781E-01
     3279    -1.024520687E+00    -4.488718435E+00     8.184895785E-01
     3280    -6.996635260E-01    -4.641964256E+00     1.994137505E+00
     3281    -7.511917973E-01    -4.983831986E+00     1.613415715E+00
     3282    -1.024677848E+00    -4.489407024E+00     1.609269831E+00
     3283    -6.921428953E-01    -4.592068161E+00     2.881154087E+00
     3284    -7.489928200E-01    -4.969242752E+00     2.429289764E+00
     3285    -1.018432501E+00    -4.462044389E+00     2.431823800E+00
     3286    -6.531815451E-01    -4.333576516E+00     3.630309558E+00
     3287    -7.069508851E-01    -4.690312785E+00     3.828648358E+00
     3288    -7.441101996E-01    -4.936848712E+00     3.314463933E+00
     3289    -1.005095607E+00    -4.403611659E+00     3.392079562E+00
     3290    -5.819719182E-01    -3.861131526E+00     4.061030530E+00
     3291    -6.336116646E-01    -4.203738863E+00     4.224779314E+00
     3292    -9.089651292E-01    -3.982436531E+00     3.931437795E+00
     3293    -5.110532204E-01    -3.390616715E+00     4.245894815E+00
     3294    -5.584855204E-01    -3.705309472E+00     4.493635223E+00
     3295    -8.042801157E-01    -3.523781526E+00     4.231619049E+00
     3296    -4.846350492E-01    -3.215343615E+00     4.646190988E+00
     3297    -4.391865744E-01    -2.913812674E+00     4.284054870E+00
     3298    -7.072902265E-01    -3.098841058E+00     4.289116313E+00
     3299    -4.023916337E-01    -2.669694065E+00     3.571428571E-01
     3300    -4.521151379E-01    -2.999587948E+00     5.421010862E-17
     3301    -6.007729541E-01    -2.632158294E+00     1.084202172E-16
     3302    -4.023916303E-01    -2.669694065E+00     1.071428571E+00
     3303    -6.007729504E-01    -2.632158294E+00     7.142857143E-01
     3304    -5.515621427E-01    -3.659375715E+00     1.626303259E-16
     3305    -7.416191966E-01    -3.249246002E+00     1.626303259E-16
     3306    -4.495085415E-01    -2.982294475E+00     5.000000000E+00
     3307    -4.023916130E-01    -2.669694068E+00     4.642857143E+00
     3308    -6.007729285E-01    -2.632158299E+00     5.000000000E+00
     3309    -5.346062422E-01    -3.546880825E+00     4.886333130E+00
     3310    -7.414646075E-01    -3.248568821E+00     5.000000000E+00
     3311    -4.023916164E-01    -2.669694067E+00     3.928571429E+00
     3312    -6.007729322E-01    -2.632158299E+00     4.285714286E+00
     3313    -6.105677828E-01    -4.050852711E+00     4.658999390E+00
     3314    -8.471212571E-01    -3.711480844E+00     4.788209956E+00
     3315    -4.023916199E-01    -2.669694067E+00     3.214285714E+00
     3316    -6.007729358E-01    -2.632158298E+00     3.571428571E+00
     3317    -7.624908641E-01    -5.058796482E+00     4.204331910E+00
     3318    -8.005439028E-01    -5.311261880E+00     3.681601716E+00
     3319    -1.164090999E+00    -5.100216005E+00     4.152837738E+00
     3320    -6.865293235E-01    -4.554824596E+00     4.431665650E+00
     3321    -1.058434556E+00    -4.637304890E+00     4.364629868E+00
     3322    -9.527779067E-01    -4.174392867E+00     4.576419912E+00
     3323    -8.005474043E-01    -5.311285084E+00     2.863468001E+00
     3324    -1.164312854E+00    -5.101187996E+00     3.322270190E+00
     3325    -4.023916233E-01    -2.669694066E+00     2.500000000E+00
     3326    -6.007729395E-01    -2.632158297E+00     2.857142857E+00
     3327    -8.005463668E-01    -5.311278174E+00     2.045334287E+00
     3328    -1.164314020E+00    -5.101193087E+00     2.491702643E+00
     3329    -4.023916268E-01    -2.669694066E+00     1.785714286E+00
     3330    -6.007729431E-01    -2.632158296E+00     2.142857143E+00
     3331    -6.007729468E-01    -2.632158295E+00     1.428571429E+00
     3332    -8.005228531E-01    -5.311122117E+00     4.090668573E-01
     3333    -7.504561524E-01    -4.978951248E+00     3.252606517E-16
     3334    -1.164157924E+00    -5.100509126E+00    -1.336647806E-11
     3335    -8.005453292E-01    -5.311271263E+00     1.227200572E+00
     3336    -1.164315187E+00    -5.101198179E+00     1.661135095E+00
     3337    -1.164316353E+00    -5.101203270E+00     8.305675475E-01
     3338    -6.510091476E-01    -4.319163481E+00     2.710505431E-16
     3339    -8.824654391E-01    -3.866333710E+00     1.084202172E-16
     3340    -1.023311682E+00    -4.483421418E+00     2.168404345E-16
     3341    -1.076710567E+00    -3.490609992E+00     3.449162772E+00
     3342    -1.129949121E+00    -3.663205139E+00     3.226910389E+00
     3343    -1.068723732E+00    -3.464717312E+00     3.613119393E+00
     3344    -1.154519594E+00    -3.742860667E+00     3.725764444E+00
     3345    -1.376674985E+00    -3.507710712E+00     3.511536118E+00
     3346    -1.025946496E+00    -3.326036917E+00     3.562307205E+00
     3347    -1.000055974E+00    -3.242101901E+00     3.192490945E+00
     3348    -1.273679375E+00    -3.245282176E+00     3.406849740E+00
     3349    -1.145685335E+00    -3.714220683E+00     2.605892116E+00
     3350    -1.054217499E+00    -3.417689246E+00     2.965488043E+00
     3351    -1.225189476E+00    -3.971966787E+00     3.186153825E+00
     3352    -1.403212210E+00    -3.575326450E+00     2.954863103E+00
     3353    -1.152040495E+00    -3.734823591E+00     1.896855482E+00
     3354    -1.059868845E+00    -3.436010445E+00     2.246893926E+00
     3355    -1.237666914E+00    -4.012417631E+00     2.368300626E+00
     3356    -1.411129051E+00    -3.595498221E+00     2.291238293E+00
     3357    -1.065181202E+00    -3.453232672E+00     1.502287628E+00
     3358    -1.155718341E+00    -3.746746861E+00     1.157150650E+00
     3359    -1.244696680E+00    -4.035207558E+00     1.579729716E+00
     3360    -1.418495143E+00    -3.614266704E+00     1.542501166E+00
     3361    -9.632069375E-01    -3.122640266E+00     3.669514586E+00
     3362    -1.036176274E+00    -3.359201051E+00     3.987102262E+00
     3363    -1.255074483E+00    -3.197877691E+00     3.734113395E+00
     3364    -9.395715795E-01    -3.046016311E+00     3.300287636E+00
     3365    -9.207614585E-01    -2.985035409E+00     3.953971663E+00
     3366    -8.522033072E-01    -2.762775334E+00     3.592117591E+00
     3367    -1.122915664E+00    -2.861142508E+00     3.616816504E+00
     3368    -9.684010548E-01    -3.139479161E+00     2.593091555E+00
     3369    -8.809865547E-01    -2.856088318E+00     2.921887081E+00
     3370    -1.191307090E+00    -3.035401009E+00     2.992736098E+00
     3371    -9.730099496E-01    -3.154420816E+00     1.834248953E+00
     3372    -8.832776357E-01    -2.863515806E+00     2.177272029E+00
     3373    -1.196793087E+00    -3.049379091E+00     2.216212396E+00
     3374    -9.754883095E-01    -3.162455448E+00     1.095059591E+00
     3375    -8.855266045E-01    -2.870806770E+00     1.448503784E+00
     3376    -1.202200171E+00    -3.063156103E+00     1.471556589E+00
     3377    -1.066025449E+00    -3.455969638E+00     7.499226128E-01
     3378    -8.857561159E-01    -2.871550814E+00     7.177760113E-01
     3379    -9.752348008E-01    -3.161633579E+00     3.606331542E-01
     3380    -1.202684996E+00    -3.064391406E+00     7.217294808E-01
     3381    -1.245229893E+00    -4.036936178E+00     8.031650284E-01
     3382    -1.155021114E+00    -3.744486490E+00     3.890810912E-01
     3383    -1.419905102E+00    -3.617859210E+00     7.814165872E-01
     3384    -1.334208231E+00    -4.325396874E+00     1.225744095E+00
     3385    -1.422900520E+00    -4.612930204E+00     8.336538726E-01
     3386    -1.333408930E+00    -4.322805586E+00     4.137740264E-01
     3387    -1.633733624E+00    -4.162685400E+00     8.338681742E-01
     3388    -1.330323264E+00    -4.312802135E+00     2.032500089E+00
     3389    -1.422981654E+00    -4.613193249E+00     1.651309077E+00
     3390    -1.633998662E+00    -4.163360718E+00     1.632747255E+00
     3391    -1.316788335E+00    -4.268922991E+00     2.936752542E+00
     3392    -1.419015227E+00    -4.600334425E+00     2.485770358E+00
     3393    -1.624459570E+00    -4.139055522E+00     2.466521172E+00
     3394    -1.249759950E+00    -4.051622315E+00     3.685007880E+00
     3395    -1.347283125E+00    -4.367784689E+00     3.895087321E+00
     3396    -1.410820920E+00    -4.573769151E+00     3.388750301E+00
     3397    -1.605239037E+00    -4.090082418E+00     3.436868728E+00
     3398    -1.124713715E+00    -3.646232388E+00     4.100463731E+00
     3399    -1.218215953E+00    -3.949359201E+00     4.275477219E+00
     3400    -1.461917040E+00    -3.724903933E+00     3.965588655E+00
     3401    -9.980867514E-01    -3.235717857E+00     4.264967575E+00
     3402    -1.085785451E+00    -3.520030063E+00     4.521948564E+00
     3403    -1.302999780E+00    -3.319989364E+00     4.252972120E+00
     3404    -9.525957162E-01    -3.088239551E+00     4.655041316E+00
     3405    -8.647002836E-01    -2.803289550E+00     4.289899415E+00
     3406    -1.154340301E+00    -2.941211189E+00     4.297550761E+00
     3407    -7.957945048E-01    -2.579902427E+00     3.571428571E-01
     3408    -8.852731897E-01    -2.869985192E+00     1.084202172E-16
     3409    -9.863656536E-01    -2.513218698E+00     1.626303259E-16
     3410    -7.957945010E-01    -2.579902428E+00     1.071428571E+00
     3411    -9.863656496E-01    -2.513218699E+00     7.142857143E-01
     3412    -1.064230556E+00    -3.450150724E+00     2.168404345E-16
     3413    -1.201522533E+00    -3.061429487E+00     1.626303259E-16
     3414    -8.889758262E-01    -2.881988939E+00     5.000000000E+00
     3415    -7.957944818E-01    -2.579902434E+00     4.642857143E+00
     3416    -9.863656260E-01    -2.513218709E+00     5.000000000E+00
     3417    -1.048338010E+00    -3.398628447E+00     4.899850128E+00
     3418    -1.217357116E+00    -3.101775427E+00     5.000000000E+00
     3419    -7.957944857E-01    -2.579902433E+00     3.928571429E+00
     3420    -9.863656299E-01    -2.513218707E+00     4.285714286E+00
     3421    -1.180699684E+00    -3.827734453E+00     4.699550383E+00
     3422    -1.374849765E+00    -3.503060149E+00     4.807716762E+00
     3423    -7.957944895E-01    -2.579902431E+00     3.214285714E+00
     3424    -9.863656338E-01    -2.513218705E+00     3.571428571E+00
     3425    -1.445423033E+00    -4.685946465E+00     4.298950894E+00
     3426    -1.511674849E+00    -4.900729565E+00     3.778918616E+00
     3427    -1.847327440E+00    -4.706913622E+00     4.230865381E+00
     3428    -1.313061359E+00    -4.256840459E+00     4.499250639E+00
     3429    -1.689835063E+00    -4.305629593E+00     4.423150286E+00
     3430    -1.532342414E+00    -3.904344871E+00     4.615433524E+00
     3431    -1.511676586E+00    -4.900735180E+00     2.939158923E+00
     3432    -1.847336620E+00    -4.706936999E+00     3.384692305E+00
     3433    -7.957944933E-01    -2.579902430E+00     2.500000000E+00
     3434    -9.863656378E-01    -2.513218704E+00     2.857142857E+00
     3435    -1.511676600E+00    -4.900735210E+00     2.099399231E+00
     3436    -1.847335139E+00    -4.706933212E+00     2.538519228E+00
     3437    -7.957944971E-01    -2.579902429E+00     1.785714286E+00
     3438    -9.863656417E-01    -2.513218702E+00     2.142857143E+00
     3439    -9.863656457E-01    -2.513218701E+00     1.428571429E+00
     3440    -1.511675386E+00    -4.900731243E+00     4.198798462E-01
     3441    -1.422145288E+00    -4.610481787E+00     2.168404345E-16
     3442    -1.846993173E+00    -4.706061854E+00    -3.722282899E-11
     3443    -1.511676614E+00    -4.900735240E+00     1.259639539E+00
     3444    -1.847333659E+00    -4.706929425E+00     1.692346152E+00
     3445    -1.847332178E+00    -4.706925639E+00     8.461730761E-01
     3446    -1.243187922E+00    -4.030316255E+00     2.168404345E-16
     3447    -1.416679413E+00    -3.609640276E+00     2.710505431E-16
     3448    -1.631836293E+00    -4.157851065E+00     3.252606517E-16
     3449    -1.567229573E+00    -3.254385791E+00     3.465125773E+00
     3450    -1.640718343E+00    -3.406986792E+00     3.245947954E+00
     3451    -1.556799983E+00    -3.232728526E+00     3.628601896E+00
     3452    -1.677375183E+00    -3.483105511E+00     3.746132327E+00
     3453    -1.872402053E+00    -3.243095535E+00     3.520612363E+00
     3454    -1.496706390E+00    -3.107942896E+00     3.575353102E+00
     3455    -1.458790282E+00    -3.029209280E+00     3.204112083E+00
     3456    -1.734710863E+00    -3.004607396E+00     3.413522244E+00
     3457    -1.662172171E+00    -3.451536115E+00     2.620858366E+00
     3458    -1.533880859E+00    -3.185136466E+00     2.979341187E+00
     3459    -1.773811063E+00    -3.683356673E+00     3.210638996E+00
     3460    -1.906743924E+00    -3.302577392E+00     2.963674826E+00
     3461    -1.671085682E+00    -3.470045201E+00     1.907014203E+00
     3462    -1.541807262E+00    -3.201595801E+00     2.257766252E+00
     3463    -1.791184122E+00    -3.719432190E+00     2.387117423E+00
     3464    -1.917319869E+00    -3.320895458E+00     2.298411098E+00
     3465    -1.549258440E+00    -3.217068321E+00     1.509833413E+00
     3466    -1.676248781E+00    -3.480766477E+00     1.164803030E+00
     3467    -1.801043864E+00    -3.739906143E+00     1.592489890E+00
     3468    -1.927163004E+00    -3.337944258E+00     1.547495362E+00
     3469    -1.408642427E+00    -2.925076193E+00     3.678984463E+00
     3470    -1.512039263E+00    -3.139781940E+00     4.000699732E+00
     3471    -1.710730281E+00    -2.963071813E+00     3.740308967E+00
     3472    -1.374640204E+00    -2.854469845E+00     3.308437085E+00
     3473    -1.349496180E+00    -2.802257750E+00     3.960013991E+00
     3474    -1.251351369E+00    -2.598457944E+00     3.595308421E+00
     3475    -1.533275541E+00    -2.655711186E+00     3.619964914E+00
     3476    -1.413515952E+00    -2.935196155E+00     2.600474638E+00
     3477    -1.290932605E+00    -2.680649219E+00     2.926745023E+00
     3478    -1.623709759E+00    -2.812347838E+00     2.997528365E+00
     3479    -1.419980247E+00    -2.948619393E+00     1.839302434E+00
     3480    -1.294123142E+00    -2.687274426E+00     2.180873221E+00
     3481    -1.631011733E+00    -2.824995219E+00     2.219764889E+00
     3482    -1.423460953E+00    -2.955847142E+00     1.097579671E+00
     3483    -1.297277613E+00    -2.693824741E+00     1.450986910E+00
     3484    -1.638238281E+00    -2.837511958E+00     1.474006136E+00
     3485    -1.550451295E+00    -3.219545299E+00     7.525492880E-01
     3486    -1.297603917E+00    -2.694502308E+00     7.177760113E-01
     3487    -1.423109822E+00    -2.955118000E+00     3.606331542E-01
     3488    -1.638995209E+00    -2.838822985E+00     7.217659342E-01
     3489    -1.801800748E+00    -3.741477817E+00     8.108390057E-01
     3490    -1.675279764E+00    -3.478754282E+00     3.916708132E-01
     3491    -1.929157402E+00    -3.341398647E+00     7.839712881E-01
     3492    -1.926595831E+00    -4.000617484E+00     1.238525866E+00
     3493    -2.050994030E+00    -4.258933001E+00     8.437866745E-01
     3494    -1.925479374E+00    -3.998299126E+00     4.188033202E-01
     3495    -2.214787305E+00    -3.836124151E+00     8.388294563E-01
     3496    -1.921142375E+00    -3.989293276E+00     2.050606439E+00
     3497    -2.051103500E+00    -4.259160329E+00     1.669193963E+00
     3498    -2.215028501E+00    -3.836541926E+00     1.640321296E+00
     3499    -1.902158728E+00    -3.949873341E+00     2.962993869E+00
     3500    -2.045540494E+00    -4.247608639E+00     2.512428035E+00
     3501    -2.202284776E+00    -3.814469157E+00     2.477714876E+00
     3502    -1.810467903E+00    -3.759475392E+00     3.710823369E+00
     3503    -1.947898178E+00    -4.044852301E+00     3.926443873E+00
     3504    -2.034505104E+00    -4.224693429E+00     3.423811742E+00
     3505    -2.177143127E+00    -3.770922557E+00     3.451318469E+00
     3506    -1.637372535E+00    -3.400039162E+00     4.119073416E+00
     3507    -1.769016161E+00    -3.673399971E+00     4.299403398E+00
     3508    -1.987338316E+00    -3.442170988E+00     3.976607384E+00
     3509    -1.460442124E+00    -3.032639381E+00     4.273968544E+00
     3510    -1.585293855E+00    -3.291896676E+00     4.535310422E+00
     3511    -1.775541691E+00    -3.075328476E+00     4.259862097E+00
     3512    -1.398171395E+00    -2.903332886E+00     4.659218033E+00
     3513    -1.270167923E+00    -2.637530932E+00     4.292657620E+00
     3514    -1.576761316E+00    -2.731030768E+00     4.300272297E+00
     3515    -1.171420642E+00    -2.432480032E+00     3.571428571E-01
     3516    -1.296926547E+00    -2.693095724E+00     1.084202172E-16
     3517    -1.349924574E+00    -2.338137949E+00     1.626303259E-16
     3518    -1.171420638E+00    -2.432480034E+00     1.071428571E+00
     3519    -1.349924570E+00    -2.338137951E+00     7.142857143E-01
     3520    -1.547938353E+00    -3.214327110E+00     1.626303259E-16
     3521    -1.637443431E+00    -2.836135217E+00     1.626303259E-16
     3522    -1.308584860E+00    -2.717304534E+00     5.000000000E+00
     3523    -1.171420617E+00    -2.432480044E+00     4.642857143E+00
     3524    -1.349924546E+00    -2.338137966E+00     5.000000000E+00
     3525    -1.536963109E+00    -3.191536853E+00     4.906229177E+00
     3526    -1.666055879E+00    -2.885693496E+00     5.000000000E+00
     3527    -1.171420621E+00    -2.432480042E+00     3.928571429E+00
     3528    -1.349924550E+00    -2.338137963E+00     4.285714286E+00
     3529    -1.719391117E+00    -3.570352512E+00     4.718687531E+00
     3530    -1.874542248E+00    -3.246802478E+00     4.814011007E+00
     3531    -1.171420625E+00    -2.432480040E+00     3.214285714E+00
     3532    -1.349924554E+00    -2.338137961E+00     3.571428571E+00
     3533    -2.084247133E+00    -4.327983830E+00     4.343604239E+00
     3534    -2.175501705E+00    -4.517475894E+00     3.824850189E+00
     3535    -2.499999976E+00    -4.330127033E+00     4.256037845E+00
     3536    -1.901819125E+00    -3.949168171E+00     4.531145885E+00
     3537    -2.291514986E+00    -3.969020440E+00     4.442033021E+00
     3538    -2.083028617E+00    -3.607911459E+00     4.628022014E+00
     3539    -2.175501823E+00    -4.517476126E+00     2.974883480E+00
     3540    -2.499999981E+00    -4.330127030E+00     3.404830276E+00
     3541    -1.171420630E+00    -2.432480038E+00     2.500000000E+00
     3542    -1.349924558E+00    -2.338137958E+00     2.857142857E+00
     3543    -2.175501827E+00    -4.517476123E+00     2.124916772E+00
     3544    -2.499999985E+00    -4.330127027E+00     2.553622707E+00
     3545    -1.171420634E+00    -2.432480036E+00     1.785714286E+00
     3546    -1.349924562E+00    -2.338137956E+00     2.142857143E+00
     3547    -1.349924566E+00    -2.338137954E+00     1.428571429E+00
     3548    -2.175501742E+00    -4.517475922E+00     4.249833543E-01
     3549    -2.049961965E+00    -4.256789883E+00     2.168404345E-16
     3550    -2.500000000E+00    -4.330127019E+00     5.421010862E-17
     3551    -2.175501832E+00    -4.517476121E+00     1.274950063E+00
     3552    -2.499999990E+00    -4.330127025E+00     1.702415138E+00
     3553    -2.499999995E+00    -4.330127022E+00     8.512075689E-01
     3554    -1.798950159E+00    -3.735558496E+00     1.084202172E-16
     3555    -1.924962287E+00    -3.334132484E+00     2.168404345E-16
     3556    -2.212481144E+00    -3.832129751E+00     2.168404345E-16
     3557    -2.034795731E+00    -2.984497233E+00     3.465072950E+00
     3558    -2.130188503E+00    -3.124412729E+00     3.245884950E+00
     3559    -2.021267360E+00    -2.964654759E+00     3.628550668E+00
     3560    -2.177816623E+00    -3.194270357E+00     3.746064931E+00
     3561    -2.349437282E+00    -2.946101208E+00     3.511523858E+00
     3562    -1.943245016E+00    -2.850216997E+00     3.575309938E+00
     3563    -1.893991609E+00    -2.777975513E+00     3.204073626E+00
     3564    -2.173664218E+00    -2.725688756E+00     3.406840664E+00
     3565    -2.158032387E+00    -3.165252198E+00     2.620808832E+00
     3566    -1.991469044E+00    -2.920948649E+00     2.979295337E+00
     3567    -2.302977649E+00    -3.377847859E+00     3.210557959E+00
     3568    -2.394719610E+00    -3.002883444E+00     2.954851578E+00
     3569    -2.169604968E+00    -3.182226049E+00     1.906980581E+00
     3570    -2.001760049E+00    -2.936042772E+00     2.257730268E+00
     3571    -2.325531362E+00    -3.410928070E+00     2.387055145E+00
     3572    -2.408231398E+00    -3.019826684E+00     2.291228913E+00
     3573    -2.011435236E+00    -2.950233656E+00     1.509808438E+00
     3574    -2.176330934E+00    -3.192091220E+00     1.164777703E+00
     3575    -2.338332803E+00    -3.429704326E+00     1.592447658E+00
     3576    -2.420807075E+00    -3.035596074E+00     1.542494635E+00
     3577    -1.828908603E+00    -2.682516283E+00     3.678953134E+00
     3578    -1.963168059E+00    -2.879438740E+00     4.000654748E+00
     3579    -2.141918283E+00    -2.685880617E+00     3.734104635E+00
     3580    -1.784748912E+00    -2.617745907E+00     3.308410122E+00
     3581    -1.752103511E+00    -2.569863907E+00     3.959994001E+00
     3582    -1.624668198E+00    -2.382950627E+00     3.595297865E+00
     3583    -1.916370449E+00    -2.403052577E+00     3.616812053E+00
     3584    -1.835196699E+00    -2.691739212E+00     2.600450202E+00
     3585    -1.676044497E+00    -2.458305809E+00     2.926728945E+00
     3586    -2.033081827E+00    -2.549404009E+00     2.992729821E+00
     3587    -1.843589422E+00    -2.704049066E+00     1.839285708E+00
     3588    -1.680186460E+00    -2.464380944E+00     2.180861302E+00
     3589    -2.042444752E+00    -2.561144737E+00     2.216207750E+00
     3590    -1.848131039E+00    -2.710710386E+00     1.097571330E+00
     3591    -1.684282626E+00    -2.470388908E+00     1.450978692E+00
     3592    -2.051677524E+00    -2.572722258E+00     1.471553386E+00
     3593    -2.013026737E+00    -2.952567950E+00     7.525405945E-01
     3594    -1.684727826E+00    -2.471041886E+00     7.177760113E-01
     3595    -1.847696910E+00    -2.710073627E+00     3.606331542E-01
     3596    -2.052649783E+00    -2.573941424E+00     7.217294331E-01
     3597    -2.339359643E+00    -3.431210413E+00     8.108136073E-01
     3598    -2.175116493E+00    -3.190309953E+00     3.916622421E-01
     3599    -2.423360403E+00    -3.038797838E+00     7.814132461E-01
     3600    -2.501361511E+00    -3.668823519E+00     1.238483562E+00
     3601    -2.662869977E+00    -3.905712925E+00     8.437531381E-01
     3602    -2.499935348E+00    -3.666731712E+00     4.187866748E-01
     3603    -2.788280488E+00    -3.496393152E+00     8.338616858E-01
     3604    -2.494258922E+00    -3.658405943E+00     2.050546512E+00
     3605    -2.662990214E+00    -3.905889290E+00     1.669134770E+00
     3606    -2.788583264E+00    -3.496772831E+00     1.632737350E+00
     3607    -2.469612082E+00    -3.622255680E+00     2.962907018E+00
     3608    -2.655767679E+00    -3.895295788E+00     2.512339807E+00
     3609    -2.772301942E+00    -3.476356707E+00     2.466506533E+00
     3610    -2.350605770E+00    -3.447705488E+00     3.710737941E+00
     3611    -2.529044962E+00    -3.709427716E+00     3.926340109E+00
     3612    -2.641447687E+00    -3.874292228E+00     3.423695703E+00
     3613    -2.739501500E+00    -3.435226265E+00     3.436849643E+00
     3614    -2.125909701E+00    -3.118136890E+00     4.119011849E+00
     3615    -2.296833568E+00    -3.368836161E+00     4.299324238E+00
     3616    -2.494917830E+00    -3.128528050E+00     3.965573478E+00
     3617    -1.896159243E+00    -2.781154861E+00     4.273938766E+00
     3618    -2.058274998E+00    -3.018935005E+00     4.535266217E+00
     3619    -2.223708813E+00    -2.788442703E+00     4.252962378E+00
     3620    -1.815291737E+00    -2.662544020E+00     4.659204215E+00
     3621    -1.649096306E+00    -2.418780089E+00     4.292648495E+00
     3622    -1.969998792E+00    -2.470300400E+00     4.297546913E+00
     3623    -1.520879177E+00    -2.230720053E+00     3.571428571E-01
     3624    -1.683848261E+00    -2.469751793E+00     5.421010862E-17
     3625    -1.683328411E+00    -2.110827062E+00     5.421010862E-17
     3626    -1.520879173E+00    -2.230720056E+00     1.071428571E+00
     3627    -1.683328407E+00    -2.110827065E+00     7.142857143E-01
     3628    -2.009786426E+00    -2.947815277E+00     5.421010862E-17
     3629    -2.050667283E+00    -2.571455438E+00     5.421010862E-17
     3630    -1.698962272E+00    -2.491920036E+00     5.000000000E+00
     3631    -1.520879153E+00    -2.230720069E+00     4.642857143E+00
     3632    -1.683328383E+00    -2.110827085E+00     5.000000000E+00
     3633    -1.995497036E+00    -2.926856651E+00     4.906208073E+00
     3634    -2.077537707E+00    -2.605149942E+00     5.000000000E+00
     3635    -1.520879157E+00    -2.230720067E+00     3.928571429E+00
     3636    -1.683328387E+00    -2.110827081E+00     4.285714286E+00
     3637    -2.232400322E+00    -3.274329952E+00     4.718624220E+00
     3638    -2.346326588E+00    -2.942200536E+00     4.807707863E+00
     3639    -1.520879161E+00    -2.230720064E+00     3.214285714E+00
     3640    -1.683328391E+00    -2.110827078E+00     3.571428571E+00
     3641    -2.706206895E+00    -3.969276553E+00     4.343456514E+00
     3642    -2.824498587E+00    -4.142778593E+00     3.824698170E+00
     3643    -3.152693510E+00    -3.953352668E+00     4.230832460E+00
     3644    -2.469303609E+00    -3.621803252E+00     4.531040367E+00
     3645    -2.883904349E+00    -3.616301722E+00     4.423123588E+00
     3646    -2.615115468E+00    -3.279251129E+00     4.615415725E+00
     3647    -2.824498147E+00    -4.142777936E+00     2.974765243E+00
     3648    -3.152662279E+00    -3.953313496E+00     3.384665968E+00
     3649    -1.520879165E+00    -2.230720061E+00     2.500000000E+00
     3650    -1.683328395E+00    -2.110827075E+00     2.857142857E+00
     3651    -2.824498152E+00    -4.142777933E+00     2.124832317E+00
     3652    -3.152662242E+00    -3.953313439E+00     2.538499476E+00
     3653    -1.520879169E+00    -2.230720058E+00     1.785714286E+00
     3654    -1.683328399E+00    -2.110827072E+00     2.142857143E+00
     3655    -1.683328403E+00    -2.110827069E+00     1.428571429E+00
     3656    -2.824498533E+00    -4.142778471E+00     4.249664633E-01
     3657    -2.661662754E+00    -3.903942244E+00     1.626303259E-16
     3658    -3.152683899E+00    -3.953340566E+00    -1.701709520E-12
     3659    -2.824498157E+00    -4.142777930E+00     1.274899390E+00
     3660    -3.152662204E+00    -3.953313382E+00     1.692332984E+00
     3661    -3.152662167E+00    -3.953313325E+00     8.461664920E-01
     3662    -2.335724590E+00    -3.425878761E+00     1.084202172E-16
     3663    -2.418006155E+00    -3.032083814E+00     5.421010862E-17
     3664    -2.785345027E+00    -3.492712190E+00     1.084202172E-16
     3665    -2.484663966E+00    -2.677830933E+00     3.449075885E+00
     3666    -2.607481979E+00    -2.810197268E+00     3.226806200E+00
     3667    -2.466256924E+00    -2.657992862E+00     3.613035427E+00
     3668    -2.664247808E+00    -2.871376287E+00     3.725653771E+00
     3669    -2.815902043E+00    -2.612775306E+00     3.482992689E+00
     3670    -2.367540750E+00    -2.551602127E+00     3.562236568E+00
     3671    -2.307746758E+00    -2.487159526E+00     3.192427529E+00
     3672    -2.594289880E+00    -2.407149268E+00     3.385866085E+00
     3673    -2.643775715E+00    -2.849312606E+00     2.605810029E+00
     3674    -2.432703864E+00    -2.621831255E+00     2.965412061E+00
     3675    -2.827244936E+00    -3.047045407E+00     3.186019576E+00
     3676    -2.878030757E+00    -2.670422323E+00     2.927149386E+00
     3677    -2.658440349E+00    -2.865117315E+00     1.896799764E+00
     3678    -2.445744588E+00    -2.635885806E+00     2.246834293E+00
     3679    -2.856033401E+00    -3.078071984E+00     2.368197420E+00
     3680    -2.895102106E+00    -2.686262212E+00     2.268679134E+00
     3681    -2.458004900E+00    -2.649099272E+00     1.502246241E+00
     3682    -2.666963158E+00    -2.874302711E+00     1.157108678E+00
     3683    -2.872255177E+00    -3.095554892E+00     1.579659729E+00
     3684    -2.910994041E+00    -2.701007765E+00     1.526793942E+00
     3685    -2.222760136E+00    -2.395565736E+00     3.669463539E+00
     3686    -2.391177042E+00    -2.577075997E+00     3.987028964E+00
     3687    -2.550307590E+00    -2.366339670E+00     3.714631495E+00
     3688    -2.168193004E+00    -2.336756350E+00     3.300243516E+00
     3689    -2.124785396E+00    -2.289974082E+00     3.953939092E+00
     3690    -1.966558165E+00    -2.119445680E+00     3.592100391E+00
     3691    -2.269385586E+00    -2.105682141E+00     3.606916369E+00
     3692    -2.234672566E+00    -2.408404271E+00     2.593051060E+00
     3693    -2.032954748E+00    -2.191004170E+00     2.921860444E+00
     3694    -2.420953669E+00    -2.246316763E+00     2.977664009E+00
     3695    -2.245307800E+00    -2.419866319E+00     1.834221235E+00
     3696    -2.038240812E+00    -2.196701185E+00     2.177252277E+00
     3697    -2.432901559E+00    -2.257402777E+00     2.205039463E+00
     3698    -2.251062566E+00    -2.426068474E+00     1.095045769E+00
     3699    -2.043431456E+00    -2.202295360E+00     1.448490165E+00
     3700    -2.444571653E+00    -2.268231034E+00     1.463852531E+00
     3701    -2.460020824E+00    -2.651271913E+00     7.499082059E-01
     3702    -2.043995190E+00    -2.202902913E+00     7.177760113E-01
     3703    -2.250511996E+00    -2.425475092E+00     3.606331542E-01
     3704    -2.445960101E+00    -2.269519318E+00     7.216148312E-01
     3705    -2.873555525E+00    -3.096956325E+00     8.031229380E-01
     3706    -2.665423326E+00    -2.872643158E+00     3.890668870E-01
     3707    -2.914382752E+00    -2.704152022E+00     7.733818075E-01
     3708    -3.078847544E+00    -3.318208506E+00     1.225673989E+00
     3709    -3.283513521E+00    -3.538785966E+00     8.335982960E-01
     3710    -3.077039475E+00    -3.316259863E+00     4.137464416E-01
     3711    -3.375485750E+00    -3.131993080E+00     8.182644657E-01
     3712    -3.069847659E+00    -3.308508946E+00     2.032400779E+00
     3713    -3.283666680E+00    -3.538951041E+00     1.651210981E+00
     3714    -3.375703415E+00    -3.132195053E+00     1.608926167E+00
     3715    -3.038615339E+00    -3.274848520E+00     2.936608613E+00
     3716    -3.274514766E+00    -3.529087633E+00     2.485624145E+00
     3717    -3.355134660E+00    -3.113110046E+00     2.431315898E+00
     3718    -2.884010766E+00    -3.108224426E+00     3.684867147E+00
     3719    -3.109076101E+00    -3.350787172E+00     3.894916435E+00
     3720    -3.255620434E+00    -3.508724396E+00     3.388558165E+00
     3721    -3.311320625E+00    -3.072456572E+00     3.391423984E+00
     3722    -2.595522167E+00    -2.797307665E+00     4.100363370E+00
     3723    -2.811304270E+00    -3.029865466E+00     4.275347882E+00
     3724    -2.994975861E+00    -2.778931532E+00     3.930938091E+00
     3725    -2.303244435E+00    -2.482307188E+00     4.264919055E+00
     3726    -2.505652522E+00    -2.700451228E+00     4.521876537E+00
     3727    -2.650057601E+00    -2.458894159E+00     4.231306671E+00
     3728    -2.198230333E+00    -2.369128908E+00     4.655018801E+00
     3729    -1.995392454E+00    -2.150521660E+00     4.289884547E+00
     3730    -2.330232711E+00    -2.162140029E+00     4.288992924E+00
     3731    -1.836363785E+00    -1.979129474E+00     3.571428571E-01
     3732    -2.042880591E+00    -2.201701653E+00     1.626303259E-16
     3733    -1.979129472E+00    -1.836363787E+00     5.421010862E-17
     3734    -1.836363781E+00    -1.979129477E+00     1.071428571E+00
     3735    -1.979129468E+00    -1.836363791E+00     7.142857143E-01
     3736    -2.455914200E+00    -2.646846016E+00     2.168404345E-16
     3737    -2.443456570E+00    -2.267196373E+00     1.084202172E-16
     3738    -2.051387674E+00    -2.210870163E+00     5.000000000E+00
     3739    -1.836363762E+00    -1.979129496E+00     4.642857143E+00
     3740    -1.979129446E+00    -1.836363815E+00     5.000000000E+00
     3741    -2.419181957E+00    -2.607258127E+00     4.899815741E+00
     3742    -2.442610777E+00    -2.266411644E+00     5.000000000E+00
     3743    -1.836363766E+00    -1.979129492E+00     3.928571429E+00
     3744    -1.979129450E+00    -1.836363811E+00     4.285714286E+00
     3745    -2.724722695E+00    -2.936552725E+00     4.699447224E+00
     3746    -2.791145014E+00    -2.589804154E+00     4.787924587E+00
     3747    -1.836363769E+00    -1.979129488E+00     3.214285714E+00
     3748    -1.979129453E+00    -1.836363807E+00     3.571428571E+00
     3749    -3.335804170E+00    -3.595141920E+00     4.298710190E+00
     3750    -3.488329664E+00    -3.759525303E+00     3.778666689E+00
     3751    -3.836746817E+00    -3.559980840E+00     4.151695564E+00
     3752    -3.030263432E+00    -3.265847323E+00     4.499078707E+00
     3753    -3.488213489E+00    -3.236589174E+00     4.363773760E+00
     3754    -3.139679252E+00    -2.913196664E+00     4.575849173E+00
     3755    -3.488323772E+00    -3.759518944E+00     2.938962980E+00
     3756    -3.835755695E+00    -3.559061205E+00     3.321356452E+00
     3757    -1.836363773E+00    -1.979129485E+00     2.500000000E+00
     3758    -1.979129457E+00    -1.836363803E+00     2.857142857E+00
     3759    -3.488323741E+00    -3.759518901E+00     2.099259272E+00
     3760    -3.835750332E+00    -3.559056220E+00     2.491017339E+00
     3761    -1.836363777E+00    -1.979129481E+00     1.785714286E+00
     3762    -1.979129461E+00    -1.836363799E+00     2.142857143E+00
     3763    -1.979129465E+00    -1.836363795E+00     1.428571429E+00
     3764    -3.488327798E+00    -3.759523254E+00     4.198518543E-01
     3765    -3.281981418E+00    -3.537134742E+00     2.168404345E-16
     3766    -3.836437864E+00    -3.559694130E+00    -2.627840437E-11
     3767    -3.488323711E+00    -3.759518859E+00     1.259555563E+00
     3768    -3.835744969E+00    -3.559051235E+00     1.660678226E+00
     3769    -3.835739606E+00    -3.559046250E+00     8.303391129E-01
     3770    -2.868947809E+00    -3.091990379E+00     2.168404345E-16
     3771    -2.907783668E+00    -2.698028959E+00     1.084202172E-16
     3772    -3.372110766E+00    -3.128861544E+00     1.084202172E-16
     3773    -2.923691615E+00    -2.331566295E+00     3.415169361E+00
     3774    -3.083459957E+00    -2.458977293E+00     3.186370718E+00
     3775    -2.897490850E+00    -2.310671884E+00     3.580148630E+00
     3776    -3.146916577E+00    -2.509582264E+00     3.682390419E+00
     3777    -3.282561227E+00    -2.238012384E+00     3.431858407E+00
     3778    -2.773037399E+00    -2.211423568E+00     3.534525100E+00
     3779    -2.703508103E+00    -2.155975801E+00     3.167743885E+00
     3780    -3.002425375E+00    -2.047018993E+00     3.348274700E+00
     3781    -3.131685638E+00    -2.497435985E+00     2.574022474E+00
     3782    -2.864816283E+00    -2.284614780E+00     2.935988687E+00
     3783    -3.363176465E+00    -2.682043765E+00     3.134014180E+00
     3784    -3.370858929E+00    -2.298212732E+00     2.877502079E+00
     3785    -3.150224736E+00    -2.512220415E+00     1.875223156E+00
     3786    -2.881303003E+00    -2.297762493E+00     2.223742025E+00
     3787    -3.400055525E+00    -2.711453826E+00     2.328231499E+00
     3788    -3.392504849E+00    -2.312970664E+00     2.228265878E+00
     3789    -2.896803383E+00    -2.310123626E+00     1.486219378E+00
     3790    -3.161009585E+00    -2.520821038E+00     1.140855410E+00
     3791    -3.420562997E+00    -2.727807981E+00     1.552557767E+00
     3792    -3.412653482E+00    -2.326707762E+00     1.498655480E+00
     3793    -2.590233905E+00    -2.065642647E+00     3.649347427E+00
     3794    -2.799190891E+00    -2.232280286E+00     3.958144930E+00
     3795    -2.939157733E+00    -2.003883849E+00     3.679729933E+00
     3796    -2.524468242E+00    -2.013196277E+00     3.282932834E+00
     3797    -2.464853894E+00    -1.965655428E+00     3.941103853E+00
     3798    -2.272360880E+00    -1.812147368E+00     3.585322364E+00
     3799    -2.590727488E+00    -1.766328129E+00     3.589180409E+00
     3800    -2.614432374E+00    -2.084940271E+00     2.577369768E+00
     3801    -2.359302545E+00    -1.881481026E+00     2.911542398E+00
     3802    -2.790888926E+00    -1.902795881E+00     2.950663335E+00
     3803    -2.627878000E+00    -2.095662793E+00     1.823487899E+00
     3804    -2.366072046E+00    -1.886879515E+00     2.169603526E+00
     3805    -2.806267281E+00    -1.913280657E+00     2.185023886E+00
     3806    -2.635163032E+00    -2.101472404E+00     1.089693249E+00
     3807    -2.372634634E+00    -1.892112997E+00     1.443216131E+00
     3808    -2.821065462E+00    -1.923369879E+00     1.450051215E+00
     3809    -2.899369234E+00    -2.312169816E+00     7.443292811E-01
     3810    -2.373355959E+00    -1.892688227E+00     7.177760113E-01
     3811    -2.634475559E+00    -2.100924155E+00     3.606331542E-01
     3812    -2.822843645E+00    -1.924582217E+00     7.214094440E-01
     3813    -3.422224650E+00    -2.729133097E+00     7.868237996E-01
     3814    -3.159080036E+00    -2.519282266E+00     3.835664489E-01
     3815    -3.416968968E+00    -2.329650004E+00     7.589880262E-01
     3816    -3.681778062E+00    -2.936120040E+00     1.198526157E+00
     3817    -3.940546310E+00    -3.142480828E+00     8.120767390E-01
     3818    -3.679499066E+00    -2.934302594E+00     4.030644769E-01
     3819    -4.001809663E+00    -2.728387638E+00     7.903114447E-01
     3820    -3.670391432E+00    -2.927039514E+00     1.993943811E+00
     3821    -3.940733578E+00    -3.142630177E+00     1.613224390E+00
     3822    -4.002068481E+00    -2.728564105E+00     1.566252249E+00
     3823    -3.630906451E+00    -2.895551302E+00     2.880873368E+00
     3824    -3.929166260E+00    -3.133405558E+00     2.429004591E+00
     3825    -3.975994204E+00    -2.710786972E+00     2.368247956E+00
     3826    -3.426633085E+00    -2.732648736E+00     3.630033881E+00
     3827    -3.708750346E+00    -2.957629746E+00     3.828313541E+00
     3828    -3.903547102E+00    -3.112974970E+00     3.314088956E+00
     3829    -3.915848782E+00    -2.669780527E+00     3.310012412E+00
     3830    -3.053192028E+00    -2.434839435E+00     4.060832419E+00
     3831    -3.324128709E+00    -2.650904229E+00     4.224524434E+00
     3832    -3.500501694E+00    -2.386601682E+00     3.868862692E+00
     3833    -2.681001498E+00    -2.138027394E+00     4.245799007E+00
     3834    -2.929898630E+00    -2.336516235E+00     4.493492997E+00
     3835    -3.058834218E+00    -2.085477899E+00     4.192493310E+00
     3836    -2.542329616E+00    -2.027440262E+00     4.646146530E+00
     3837    -2.303893936E+00    -1.837294149E+00     4.284025511E+00
     3838    -2.654855220E+00    -1.810049683E+00     4.273661673E+00
     3839    -2.110827061E+00    -1.683328413E+00     3.571428571E-01
     3840    -2.371946660E+00    -1.891564342E+00     5.421010862E-17
     3841    -2.230720051E+00    -1.520879179E+00     0.000000000E+00
     3842    -2.110827057E+00    -1.683328417E+00     1.071428571E+00
     3843    -2.230720048E+00    -1.520879184E+00     7.142857143E-01
     3844    -2.894185857E+00    -2.308036203E+00     1.084202172E-16
     3845    -2.819668445E+00    -1.922417395E+00     5.421010862E-17
     3846    -2.357988466E+00    -1.880433104E+00     5.000000000E+00
     3847    -2.110827039E+00    -1.683328440E+00     4.642857143E+00
     3848    -2.230720028E+00    -1.520879213E+00     5.000000000E+00
     3849    -2.804504754E+00    -2.236517960E+00     4.886265230E+00
     3850    -2.753119959E+00    -1.877045455E+00     5.000000000E+00
     3851    -2.110827043E+00    -1.683328435E+00     3.928571429E+00
     3852    -2.230720032E+00    -1.520879208E+00     4.285714286E+00
     3853    -3.203214471E+00    -2.554478347E+00     4.658795691E+00
     3854    -3.211640498E+00    -2.189659462E+00     4.752467171E+00
     3855    -2.110827046E+00    -1.683328431E+00     3.214285714E+00
     3856    -2.230720035E+00    -1.520879203E+00     3.571428571E+00
     3857    -4.000633905E+00    -3.190399121E+00     4.203856611E+00
     3858    -4.199490036E+00    -3.348981588E+00     3.681110359E+00
     3859    -4.587201872E+00    -3.127501320E+00     4.009868028E+00
     3860    -3.601924188E+00    -2.872438734E+00     4.431326151E+00
     3861    -4.128681575E+00    -2.814887478E+00     4.257401513E+00
     3862    -3.670161036E+00    -2.502273470E+00     4.504934342E+00
     3863    -4.199458115E+00    -3.348956123E+00     2.863085835E+00
     3864    -4.585615275E+00    -3.126419589E+00     3.207894422E+00
     3865    -2.110827050E+00    -1.683328426E+00     2.500000000E+00
     3866    -2.230720038E+00    -1.520879198E+00     2.857142857E+00
     3867    -4.199457390E+00    -3.348955537E+00     2.045061311E+00
     3868    -4.585589367E+00    -3.126401917E+00     2.405920817E+00
     3869    -2.110827053E+00    -1.683328422E+00     1.785714286E+00
     3870    -2.230720042E+00    -1.520879194E+00     2.142857143E+00
     3871    -2.230720045E+00    -1.520879189E+00     1.428571429E+00
     3872    -4.199475267E+00    -3.348969777E+00     4.090122621E-01
     3873    -3.938664250E+00    -3.140979927E+00     1.626303259E-16
     3874    -4.586513627E+00    -3.127032043E+00    -2.531579547E-11
     3875    -4.199456665E+00    -3.348954950E+00     1.227036786E+00
     3876    -4.585563459E+00    -3.126384245E+00     1.603947211E+00
     3877    -4.585537551E+00    -3.126366574E+00     8.019736056E-01
     3878    -3.416425053E+00    -2.724508065E+00     1.084202172E-16
     3879    -3.408616839E+00    -2.323955611E+00     5.421010862E-17
     3880    -3.997565233E+00    -2.725493827E+00     5.421010862E-17
     3881    -3.362566474E+00    -1.941378691E+00     3.359149931E+00
     3882    -3.573734218E+00    -2.063296443E+00     3.119562642E+00
     3883    -3.324240069E+00    -1.919250933E+00     3.525814872E+00
     3884    -3.640584513E+00    -2.101892483E+00     3.610912460E+00
     3885    -3.578734243E+00    -1.723427611E+00     3.432527505E+00
     3886    -3.166240507E+00    -1.828029843E+00     3.488742077E+00
     3887    -3.087867925E+00    -1.782781408E+00     3.126961768E+00
     3888    -3.273382122E+00    -1.576377779E+00     3.348766505E+00
     3889    -3.639141469E+00    -2.101059331E+00     2.521502093E+00
     3890    -3.299035670E+00    -1.904699160E+00     2.887374479E+00
     3891    -3.933339955E+00    -2.270914911E+00     3.048089397E+00
     3892    -3.675431974E+00    -1.769994779E+00     2.878152203E+00
     3893    -3.662771554E+00    -2.114702161E+00     1.839573618E+00
     3894    -3.320048892E+00    -1.916831143E+00     2.185588266E+00
     3895    -3.981157721E+00    -2.298522504E+00     2.262198569E+00
     3896    -3.699047533E+00    -1.781367427E+00     2.228795084E+00
     3897    -3.339802869E+00    -1.928236100E+00     1.459739300E+00
     3898    -3.676470597E+00    -2.122611299E+00     1.114001260E+00
     3899    -4.007296481E+00    -2.313613717E+00     1.507779069E+00
     3900    -3.721024280E+00    -1.791950864E+00     1.499023949E+00
     3901    -2.933696669E+00    -1.693770596E+00     3.616113614E+00
     3902    -3.193280268E+00    -1.843641260E+00     3.910425640E+00
     3903    -3.204071700E+00    -1.542999642E+00     3.680186123E+00
     3904    -2.855324087E+00    -1.648522161E+00     3.254333305E+00
     3905    -2.771460226E+00    -1.600103345E+00     3.919898764E+00
     3906    -2.538808584E+00    -1.465781854E+00     3.574124391E+00
     3907    -2.824580491E+00    -1.360246307E+00     3.589412231E+00
     3908    -2.979943093E+00    -1.720470972E+00     2.551460652E+00
     3909    -2.654653438E+00    -1.532664905E+00     2.894494628E+00
     3910    -3.043147776E+00    -1.465502758E+00     2.951016893E+00
     3911    -2.997080207E+00    -1.730365082E+00     1.805753948E+00
     3912    -2.663427594E+00    -1.537730659E+00     2.156966024E+00
     3913    -3.059936536E+00    -1.473587792E+00     2.185285987E+00
     3914    -3.006319121E+00    -1.735699164E+00     1.080849649E+00
     3915    -2.671790554E+00    -1.542559010E+00     1.434502210E+00
     3916    -3.076066444E+00    -1.481355539E+00     1.450231941E+00
     3917    -3.342986849E+00    -1.930074364E+00     7.351116090E-01
     3918    -2.672666511E+00    -1.543064737E+00     7.177760113E-01
     3919    -3.005399269E+00    -1.735168081E+00     3.606331542E-01
     3920    -3.077554263E+00    -1.482072028E+00     7.214121335E-01
     3921    -4.009325376E+00    -2.314785092E+00     7.598938594E-01
     3922    -3.673923798E+00    -2.121140897E+00     3.744784549E-01
     3923    -3.725271354E+00    -1.793996140E+00     7.591765107E-01
     3924    -4.340151260E+00    -2.505787509E+00     1.153671669E+00
     3925    -4.669936064E+00    -2.696188851E+00     7.765181573E-01
     3926    -4.337203309E+00    -2.504085502E+00     3.854154045E-01
     3927    -4.362875119E+00    -2.101049930E+00     7.906774854E-01
     3928    -4.325682648E+00    -2.497434060E+00     1.930404020E+00
     3929    -4.670215191E+00    -2.696350013E+00     1.550461770E+00
     3930    -4.363621353E+00    -2.101409305E+00     1.566811058E+00
     3931    -4.275356207E+00    -2.468378084E+00     2.788785873E+00
     3932    -4.655467448E+00    -2.687835407E+00     2.335456014E+00
     3933    -4.335158361E+00    -2.087702258E+00     2.369073821E+00
     3934    -4.000190249E+00    -2.309510951E+00     3.539439215E+00
     3935    -4.355600430E+00    -2.514707117E+00     3.718273440E+00
     3936    -4.619888747E+00    -2.667294043E+00     3.191049129E+00
     3937    -4.269345923E+00    -2.056008667E+00     3.311078244E+00
     3938    -3.509624712E+00    -2.026282811E+00     3.995523228E+00
     3939    -3.851724856E+00    -2.223794422E+00     4.140557979E+00
     3940    -3.815910576E+00    -1.837645718E+00     3.869674580E+00
     3941    -3.031043825E+00    -1.749974009E+00     4.214210790E+00
     3942    -3.336458262E+00    -1.926305119E+00     4.446600572E+00
     3943    -3.334469182E+00    -1.605795765E+00     4.193000631E+00
     3944    -2.844567338E+00    -1.642311763E+00     4.631488659E+00
     3945    -2.570789574E+00    -1.484246094E+00     4.274345801E+00
     3946    -2.894571816E+00    -1.393952359E+00     4.273862064E+00
     3947    -2.338137948E+00    -1.349924577E+00     3.571428571E-01
     3948    -2.670870705E+00    -1.542027921E+00     1.084202172E-16
     3949    -2.432480031E+00    -1.171420644E+00     0.000000000E+00
     3950    -2.338137945E+00    -1.349924582E+00     1.071428571E+00
     3951    -2.432480028E+00    -1.171420649E+00     7.142857143E-01
     3952    -3.336336218E+00    -1.926234614E+00     1.084202172E-16
     3953    -3.074088367E+00    -1.480402934E+00     5.421010862E-17
     3954    -2.611915694E+00    -1.507990277E+00     5.000000000E+00
     3955    -2.338137930E+00    -1.349924608E+00     4.642857143E+00
     3956    -2.432480012E+00    -1.171420682E+00     5.000000000E+00
     3957    -3.149981775E+00    -1.818642872E+00     4.863878441E+00
     3958    -3.002128991E+00    -1.445749172E+00     5.000000000E+00
     3959    -2.338137933E+00    -1.349924603E+00     3.928571429E+00
     3960    -2.432480015E+00    -1.171420677E+00     4.285714286E+00
     3961    -3.678558406E+00    -2.123816730E+00     4.591635323E+00
     3962    -3.501184800E+00    -1.686081780E+00     4.752930627E+00
     3963    -2.338137936E+00    -1.349924598E+00     3.214285714E+00
     3964    -2.432480018E+00    -1.171420671E+00     3.571428571E+00
     3965    -4.735711668E+00    -2.734164445E+00     4.047149087E+00
     3966    -4.999999990E+00    -2.886751374E+00     3.519924775E+00
     3967    -4.998353325E+00    -2.407080135E+00     4.011725239E+00
     3968    -4.207135037E+00    -2.428990588E+00     4.319392205E+00
     3969    -4.499296418E+00    -2.166746998E+00     4.258791880E+00
     3970    -4.000240609E+00    -1.926414389E+00     4.505861253E+00
     3971    -4.999999997E+00    -2.886751371E+00     2.737719270E+00
     3972    -4.999711092E+00    -2.407733993E+00     3.209380191E+00
     3973    -2.338137939E+00    -1.349924592E+00     2.500000000E+00
     3974    -2.432480020E+00    -1.171420666E+00     2.857142857E+00
     3975    -4.999999998E+00    -2.886751364E+00     1.955513764E+00
     3976    -4.999732178E+00    -2.407744141E+00     2.407035143E+00
     3977    -2.338137942E+00    -1.349924587E+00     1.785714286E+00
     3978    -2.432480023E+00    -1.171420660E+00     2.142857143E+00
     3979    -2.432480026E+00    -1.171420655E+00     1.428571429E+00
     3980    -5.000000000E+00    -2.886751349E+00     3.911027528E-01
     3981    -4.667267244E+00    -2.694647999E+00     1.626303259E-16
     3982    -4.998913377E+00    -2.407349804E+00    -2.133959242E-11
     3983    -4.999999999E+00    -2.886751357E+00     1.173308258E+00
     3984    -4.999753265E+00    -2.407754288E+00     1.604690096E+00
     3985    -4.999774351E+00    -2.407764435E+00     8.023450477E-01
     3986    -4.001801731E+00    -2.310441307E+00     1.626303259E-16
     3987    -3.715696704E+00    -1.789385224E+00     5.421010862E-17
     3988    -4.357305041E+00    -2.098367514E+00     5.421010862E-17
     3989    -3.480842909E+00    -1.366130204E+00     3.415337145E+00
     3990    -3.671134450E+00    -1.440814128E+00     3.186569842E+00
     3991    -3.449596953E+00    -1.353867071E+00     3.580311891E+00
     3992    -3.746531790E+00    -1.470405408E+00     3.682604831E+00
     3993    -3.670270219E+00    -1.132128460E+00     3.483405156E+00
     3994    -3.301436683E+00    -1.295718450E+00     3.534662866E+00
     3995    -3.218769029E+00    -1.263273783E+00     3.167865755E+00
     3996    -3.381442754E+00    -1.043036985E+00     3.386169229E+00
     3997    -3.728570685E+00    -1.463356183E+00     2.574178704E+00
     3998    -3.410869107E+00    -1.338667505E+00     2.936133298E+00
     3999    -4.004181596E+00    -1.571525500E+00     3.134269858E+00
     4000    -3.751574127E+00    -1.157207389E+00     2.927550332E+00
     4001    -3.750620837E+00    -1.472010223E+00     1.875329202E+00
     4002    -3.430483540E+00    -1.346365596E+00     2.223855520E+00
     4003    -4.048069905E+00    -1.588750385E+00     2.328427925E+00
     4004    -3.773830051E+00    -1.164072427E+00     2.269005507E+00
     4005    -3.448906676E+00    -1.353596138E+00     1.486298148E+00
     4006    -3.763148627E+00    -1.476927012E+00     1.140935293E+00
     4007    -4.072453468E+00    -1.598320221E+00     1.552690969E+00
     4008    -3.794540449E+00    -1.170460731E+00     1.527021186E+00
     4009    -3.083806422E+00    -1.210304867E+00     3.649447820E+00
     4010    -3.332506021E+00    -1.307912270E+00     3.958289082E+00
     4011    -3.323861973E+00    -1.025275669E+00     3.714912532E+00
     4012    -3.005568108E+00    -1.179598589E+00     3.283018901E+00
     4013    -2.934600775E+00    -1.151745969E+00     3.941167910E+00
     4014    -2.705475479E+00    -1.061820913E+00     3.585356191E+00
     4015    -2.957961046E+00    -9.124101800E-01     3.607059184E+00
     4016    -3.112770618E+00    -1.221672467E+00     2.577446839E+00
     4017    -2.809037054E+00    -1.102465830E+00     2.911593124E+00
     4018    -3.155788778E+00    -9.734319482E-01     2.977882052E+00
     4019    -3.128767448E+00    -1.227950753E+00     1.823540651E+00
     4020    -2.817092237E+00    -1.105627249E+00     2.169641118E+00
     4021    -3.171373194E+00    -9.782390965E-01     2.205201107E+00
     4022    -3.137129560E+00    -1.231232633E+00     1.089719556E+00
     4023    -2.824891386E+00    -1.108688183E+00     1.443242052E+00
     4024    -3.186575575E+00    -9.829284034E-01     1.463963989E+00
     4025    -3.451371511E+00    -1.354563507E+00     7.443567006E-01
     4026    -2.825453060E+00    -1.108908617E+00     7.177760113E-01
     4027    -3.136011296E+00    -1.230793740E+00     3.606331542E-01
     4028    -3.188006017E+00    -9.833696295E-01     7.216164899E-01
     4029    -4.073822978E+00    -1.598857706E+00     7.869039072E-01
     4030    -3.760249809E+00    -1.475789303E+00     3.835934826E-01
     4031    -3.798572314E+00    -1.171704390E+00     7.734980501E-01
     4032    -4.383127819E+00    -1.720250915E+00     1.198659584E+00
     4033    -4.691174478E+00    -1.841150316E+00     8.121825139E-01
     4034    -4.380071676E+00    -1.719051460E+00     4.031169769E-01
     4035    -4.399604536E+00    -1.357098278E+00     8.184902114E-01
     4036    -4.369890731E+00    -1.715055748E+00     1.994132821E+00
     4037    -4.691721006E+00    -1.841364820E+00     1.613411088E+00
     4038    -4.400279451E+00    -1.357306469E+00     1.609270797E+00
     4039    -4.322919128E+00    -1.696620761E+00     2.881147298E+00
     4040    -4.677986869E+00    -1.835974576E+00     2.429282867E+00
     4041    -4.373460039E+00    -1.349033784E+00     2.431825228E+00
     4042    -4.079578936E+00    -1.601116780E+00     3.630304847E+00
     4043    -4.415406503E+00    -1.732919389E+00     3.828642761E+00
     4044    -4.647491657E+00    -1.824006095E+00     3.314455249E+00
     4045    -4.316187276E+00    -1.331367485E+00     3.392081219E+00
     4046    -3.634825562E+00    -1.426563947E+00     4.061029627E+00
     4047    -3.957352267E+00    -1.553146353E+00     4.224777459E+00
     4048    -3.903373410E+00    -1.204031276E+00     3.931438444E+00
     4049    -3.191887619E+00    -1.252723617E+00     4.245894429E+00
     4050    -3.488136080E+00    -1.368992572E+00     4.493634651E+00
     4051    -3.453824035E+00    -1.065363661E+00     4.231619207E+00
     4052    -3.026887144E+00    -1.187965706E+00     4.646190809E+00
     4053    -2.743029325E+00    -1.076559718E+00     4.284054752E+00
     4054    -3.037320054E+00    -9.368891982E-01     4.289116375E+00
     4055    -2.513218697E+00    -9.863656565E-01     3.571428571E-01
     4056    -2.823776933E+00    -1.108250779E+00     0.000000000E+00
     4057    -2.579902426E+00    -7.957945067E-01    -5.421010862E-17
     4058    -2.513218694E+00    -9.863656622E-01     1.071428571E+00
     4059    -2.579902424E+00    -7.957945127E-01     7.142857143E-01
     4060    -3.444893402E+00    -1.352021030E+00     5.421010862E-17
     4061    -3.184739179E+00    -9.823619367E-01     0.000000000E+00
     4062    -2.807497041E+00    -1.101861439E+00     5.000000000E+00
     4063    -2.513218683E+00    -9.863656910E-01     4.642857143E+00
     4064    -2.579902413E+00    -7.957945487E-01     5.000000000E+00
     4065    -3.338992583E+00    -1.310458067E+00     4.886332857E+00
     4066    -3.184075423E+00    -9.821572411E-01     5.000000000E+00
     4067    -2.513218685E+00    -9.863656853E-01     3.928571429E+00
     4068    -2.579902415E+00    -7.957945427E-01     4.285714286E+00
     4069    -3.813426950E+00    -1.496659832E+00     4.658998570E+00
     4070    -3.637797011E+00    -1.122111814E+00     4.788210100E+00
     4071    -2.513218688E+00    -9.863656795E-01     3.214285714E+00
     4072    -2.579902417E+00    -7.957945367E-01     3.571428571E+00
     4073    -4.762295683E+00    -1.869063364E+00     4.204329997E+00
     4074    -4.999959664E+00    -1.962339598E+00     3.681589833E+00
     4075    -4.998962010E+00    -1.541975605E+00     4.152840949E+00
     4076    -4.287861317E+00    -1.682861598E+00     4.431664284E+00
     4077    -4.545240188E+00    -1.402020960E+00     4.364630300E+00
     4078    -4.091518600E+00    -1.262066387E+00     4.576420200E+00
     4079    -4.999981511E+00    -1.962348164E+00     2.863458759E+00
     4080    -4.999914813E+00    -1.542269499E+00     3.322272759E+00
     4081    -2.513218690E+00    -9.863656738E-01     2.500000000E+00
     4082    -2.579902419E+00    -7.957945307E-01     2.857142857E+00
     4083    -4.999975008E+00    -1.962345604E+00     2.045327685E+00
     4084    -4.999919808E+00    -1.542271031E+00     2.491704569E+00
     4085    -2.513218692E+00    -9.863656680E-01     1.785714286E+00
     4086    -2.579902421E+00    -7.957945247E-01     2.142857143E+00
     4087    -2.579902422E+00    -7.957945187E-01     1.428571429E+00
     4088    -4.999828102E+00    -1.962287933E+00     4.090655369E-01
     4089    -4.687126341E+00    -1.839561532E+00     5.421010862E-17
     4090    -4.999249437E+00    -1.542064227E+00    -2.236795818E-11
     4091    -4.999968505E+00    -1.962343045E+00     1.227196611E+00
     4092    -4.999924802E+00    -1.542272564E+00     1.661136380E+00
     4093    -4.999929796E+00    -1.542274097E+00     8.305681898E-01
     4094    -4.066009872E+00    -1.595791281E+00     5.421010862E-17
     4095    -3.789575932E+00    -1.168929367E+00     0.000000000E+00
     4096    -4.394412685E+00    -1.355496797E+00     0.000000000E+00
     4097    -3.561312018E+00    -8.128462597E-01     3.449163541E+00
     4098    -3.737403203E+00    -8.530379217E-01     3.226911690E+00
     4099    -3.534894799E+00    -8.068167034E-01     3.613119930E+00
     4100    -3.818671916E+00    -8.715869795E-01     3.725765294E+00
     4101    -3.726104238E+00    -5.616198811E-01     3.511535401E+00
     4102    -3.393405445E+00    -7.745226812E-01     3.562307580E+00
     4103    -3.307770500E+00    -7.549770605E-01     3.192491613E+00
     4104    -3.447336639E+00    -5.196024251E-01     3.406849273E+00
     4105    -3.789452134E+00    -8.649177447E-01     2.605893261E+00
     4106    -3.486914457E+00    -7.958654977E-01     2.965489103E+00
     4107    -4.052418865E+00    -9.249381905E-01     3.186155666E+00
     4108    -3.797929637E+00    -5.724458131E-01     2.954862052E+00
     4109    -3.810472355E+00    -8.697154667E-01     1.896856260E+00
     4110    -3.505606755E+00    -8.001318861E-01     2.246894758E+00
     4111    -4.093689056E+00    -9.343578348E-01     2.368302066E+00
     4112    -3.819357324E+00    -5.756755112E-01     2.291237438E+00
     4113    -3.523177819E+00    -8.041423601E-01     1.502288206E+00
     4114    -3.822637134E+00    -8.724919913E-01     1.157151235E+00
     4115    -4.116940594E+00    -9.396648395E-01     1.579730692E+00
     4116    -3.839294353E+00    -5.786805280E-01     1.542500571E+00
     4117    -3.185889007E+00    -7.271584093E-01     3.669514704E+00
     4118    -3.427241211E+00    -7.822454780E-01     3.987102431E+00
     4119    -3.396980831E+00    -5.120125113E-01     3.734113272E+00
     4120    -3.107713127E+00    -7.093152715E-01     3.300287867E+00
     4121    -3.045497057E+00    -6.951148656E-01     3.953971738E+00
     4122    -2.818735189E+00    -6.433579455E-01     3.592117631E+00
     4123    -3.039280064E+00    -4.580977945E-01     3.616816442E+00
     4124    -3.203069234E+00    -7.310796743E-01     2.593092120E+00
     4125    -2.913938312E+00    -6.650874311E-01     2.921887447E+00
     4126    -3.224387932E+00    -4.859983108E-01     2.992735535E+00
     4127    -3.218313535E+00    -7.345590796E-01     1.834249339E+00
     4128    -2.921516249E+00    -6.668170389E-01     2.177272304E+00
     4129    -3.239236301E+00    -4.882363353E-01     2.216211972E+00
     4130    -3.226510910E+00    -7.364300703E-01     1.095059784E+00
     4131    -2.928954894E+00    -6.685148544E-01     1.448503974E+00
     4132    -3.253871085E+00    -4.904421674E-01     1.471556297E+00
     4133    -3.525970225E+00    -8.047797016E-01     7.499228137E-01
     4134    -2.929714010E+00    -6.686881112E-01     7.177760113E-01
     4135    -3.225672397E+00    -7.362386784E-01     3.606331542E-01
     4136    -3.255183302E+00    -4.906399454E-01     7.217294764E-01
     4137    -4.118704230E+00    -9.400673708E-01     8.031656154E-01
     4138    -3.820330981E+00    -8.719656201E-01     3.890812893E-01
     4139    -3.843110535E+00    -5.792557180E-01     7.814162826E-01
     4140    -4.413007690E+00    -1.007240219E+00     1.225745073E+00
     4141    -4.706365003E+00    -1.074197108E+00     8.336546477E-01
     4142    -4.410363918E+00    -1.006636788E+00     4.137744111E-01
     4143    -4.421858117E+00    -6.664878808E-01     8.338675827E-01
     4144    -4.400157843E+00    -1.004307332E+00     2.032501474E+00
     4145    -4.706633373E+00    -1.074258369E+00     1.651310445E+00
     4146    -4.422575478E+00    -6.665960128E-01     1.632746352E+00
     4147    -4.355389925E+00    -9.940893555E-01     2.936754550E+00
     4148    -4.693514092E+00    -1.071263986E+00     2.485772397E+00
     4149    -4.396757014E+00    -6.627045132E-01     2.466519838E+00
     4150    -4.133687577E+00    -9.434872483E-01     3.685009271E+00
     4151    -4.456253744E+00    -1.017110873E+00     3.895088973E+00
     4152    -4.666410688E+00    -1.065077819E+00     3.388752869E+00
     4153    -4.344734873E+00    -6.548634458E-01     3.436867182E+00
     4154    -3.720086238E+00    -8.490854454E-01     4.100463994E+00
     4155    -4.029352825E+00    -9.196735273E-01     4.275477763E+00
     4156    -3.956820268E+00    -5.963947315E-01     3.965588060E+00
     4157    -3.301256992E+00    -7.534904045E-01     4.264967686E+00
     4158    -3.591327816E+00    -8.196971795E-01     4.521948730E+00
     4159    -3.526695321E+00    -5.315638295E-01     4.252971983E+00
     4160    -3.150791645E+00    -7.191476745E-01     4.655041368E+00
     4161    -2.860070028E+00    -6.527923593E-01     4.289899449E+00
     4162    -3.124333876E+00    -4.709176001E-01     4.297550707E+00
     4163    -2.632158293E+00    -6.007729572E-01     3.571428571E-01
     4164    -2.928116680E+00    -6.683235244E-01     1.084202172E-16
     4165    -2.669694064E+00    -4.023916354E-01    -5.421010862E-17
     4166    -2.632158292E+00    -6.007729634E-01     1.071428571E+00
     4167    -2.669694063E+00    -4.023916418E-01     7.142857143E-01
     4168    -3.520033451E+00    -8.034246649E-01     5.421010862E-17
     4169    -3.252036974E+00    -4.901657063E-01     5.421010862E-17
     4170    -2.940363544E+00    -6.711188369E-01     5.000000000E+00
     4171    -2.632158284E+00    -6.007729943E-01     4.642857143E+00
     4172    -2.669694058E+00    -4.023916797E-01     5.000000000E+00
     4173    -3.467467401E+00    -7.914268516E-01     4.899850207E+00
     4174    -3.294894872E+00    -4.966255403E-01     5.000000000E+00
     4175    -2.632158286E+00    -6.007729881E-01     3.928571429E+00
     4176    -2.669694059E+00    -4.023916733E-01     4.285714286E+00
     4177    -3.905264594E+00    -8.913512022E-01     4.699550621E+00
     4178    -3.721164237E+00    -5.608753074E-01     4.807716637E+00
     4179    -2.632158287E+00    -6.007729819E-01     3.214285714E+00
     4180    -2.669694060E+00    -4.023916670E-01     3.571428571E+00
     4181    -4.780858980E+00    -1.091199903E+00     4.298951449E+00
     4182    -4.999993726E+00    -1.141215974E+00     3.778922129E+00
     4183    -4.999970491E+00    -7.536243318E-01     4.230862380E+00
     4184    -4.343061787E+00    -9.912755528E-01     4.499251035E+00
     4185    -4.573702966E+00    -6.893748418E-01     4.423149912E+00
     4186    -4.147433601E+00    -6.251250746E-01     4.615433275E+00
     4187    -4.999999456E+00    -1.141217275E+00     2.939161656E+00
     4188    -4.999995325E+00    -7.536280672E-01     3.384689904E+00
     4189    -2.632158289E+00    -6.007729757E-01     2.500000000E+00
     4190    -2.669694060E+00    -4.023916607E-01     2.857142857E+00
     4191    -4.999999489E+00    -1.141217274E+00     2.099401183E+00
     4192    -4.999991305E+00    -7.536274537E-01     2.538517428E+00
     4193    -2.632158290E+00    -6.007729695E-01     1.785714286E+00
     4194    -2.669694061E+00    -4.023916544E-01     2.142857143E+00
     4195    -2.669694062E+00    -4.023916481E-01     1.428571429E+00
     4196    -4.999995446E+00    -1.141216336E+00     4.198802366E-01
     4197    -4.703866995E+00    -1.073626946E+00     0.000000000E+00
     4198    -4.999065703E+00    -7.534879187E-01    -5.607049113E-11
     4199    -4.999999522E+00    -1.141217274E+00     1.259640710E+00
     4200    -4.999987285E+00    -7.536268401E-01     1.692344952E+00
     4201    -4.999983266E+00    -7.536262266E-01     8.461724759E-01
     4202    -4.111950223E+00    -9.385258055E-01     5.421010862E-17
     4203    -3.834379884E+00    -5.779397771E-01     0.000000000E+00
     4204    -4.416722794E+00    -6.657138479E-01     5.421010862E-17
     4205    -3.601995591E+00    -2.699322842E-01     3.465125625E+00
     4206    -3.770896296E+00    -2.825896402E-01     3.245947703E+00
     4207    -3.578025071E+00    -2.681359435E-01     3.628601793E+00
     4208    -3.855145505E+00    -2.889032501E-01     3.746132163E+00
     4209    -3.744803989E+00    -3.168003973E-08     3.520613055E+00
     4210    -3.439910746E+00    -2.577857053E-01     3.575353030E+00
     4211    -3.352767348E+00    -2.512552070E-01     3.204111955E+00
     4212    -3.469421623E+00    -3.071639223E-08     3.413522695E+00
     4213    -3.820204043E+00    -2.862847394E-01     2.620858145E+00
     4214    -3.525349523E+00    -2.641884511E-01     2.979340982E+00
     4215    -4.076785984E+00    -3.055129030E-01     3.210638641E+00
     4216    -3.813487881E+00    -2.666847035E-08     2.963675840E+00
     4217    -3.840690137E+00    -2.878199535E-01     1.907014053E+00
     4218    -3.543566927E+00    -2.655536502E-01     2.257766091E+00
     4219    -4.116714825E+00    -3.085051485E-01     2.387117145E+00
     4220    -3.834639764E+00    -2.068212885E-08     2.298411923E+00
     4221    -3.560692111E+00    -2.668369986E-01     1.509833301E+00
     4222    -3.852556584E+00    -2.887092141E-01     1.164802917E+00
     4223    -4.139375660E+00    -3.102033362E-01     1.592489701E+00
     4224    -3.854326026E+00    -1.392505180E-08     1.547495936E+00
     4225    -3.237511553E+00    -2.426179835E-01     3.678984440E+00
     4226    -3.475150624E+00    -2.604265728E-01     4.000699700E+00
     4227    -3.421460339E+00    -3.365696186E-08     3.740309086E+00
     4228    -3.159363533E+00    -2.367615957E-01     3.308437041E+00
     4229    -3.101574520E+00    -2.324309137E-01     3.960013977E+00
     4230    -2.876006291E+00    -2.155269085E-01     3.595308413E+00
     4231    -3.066550988E+00    -3.257405099E-08     3.619964974E+00
     4232    -3.248712411E+00    -2.434573620E-01     2.600474529E+00
     4233    -2.966976625E+00    -2.223441866E-01     2.926744952E+00
     4234    -3.247419548E+00    -2.697309399E-08     2.997528908E+00
     4235    -3.263569423E+00    -2.445707343E-01     1.839302359E+00
     4236    -2.974309490E+00    -2.228937021E-01     2.180873168E+00
     4237    -3.262023492E+00    -1.997443004E-08     2.219765298E+00
     4238    -3.271569191E+00    -2.451702274E-01     1.097579633E+00
     4239    -2.981559465E+00    -2.234370061E-01     1.450986874E+00
     4240    -3.276476580E+00    -1.326375893E-08     1.474006418E+00
     4241    -3.563433664E+00    -2.670424428E-01     7.525492492E-01
     4242    -2.982309408E+00    -2.234931999E-01     7.177760113E-01
     4243    -3.270762170E+00    -2.451097429E-01     3.606331542E-01
     4244    -3.277990427E+00    -6.494763472E-09     7.217659384E-01
     4245    -4.141115212E+00    -3.103336905E-01     8.108388923E-01
     4246    -3.850329463E+00    -2.885423075E-01     3.916707750E-01
     4247    -3.858314813E+00    -7.054519009E-09     7.839715821E-01
     4248    -4.427934287E+00    -3.318278127E-01     1.238525677E+00
     4249    -4.713841187E+00    -3.532535692E-01     8.437865247E-01
     4250    -4.425368302E+00    -3.316355113E-01     4.188032458E-01
     4251    -4.429574619E+00    -7.548161152E-09     8.388300272E-01
     4252    -4.415400508E+00    -3.308885431E-01     2.050606171E+00
     4253    -4.714092793E+00    -3.532724320E-01     1.669193699E+00
     4254    -4.430057021E+00    -1.476034504E-08     1.640322168E+00
     4255    -4.371770019E+00    -3.276188981E-01     2.962993481E+00
     4256    -4.701307234E+00    -3.523142944E-01     2.512427641E+00
     4257    -4.404569580E+00    -2.229558979E-08     2.477716164E+00
     4258    -4.161035193E+00    -3.118265129E-01     3.710823101E+00
     4259    -4.476893997E+00    -3.354968599E-01     3.926443555E+00
     4260    -4.675944393E+00    -3.504136204E-01     3.423811247E+00
     4261    -4.354286218E+00    -3.105651104E-08     3.451319962E+00
     4262    -3.763206649E+00    -2.820133887E-01     4.119073366E+00
     4263    -4.065765877E+00    -3.046870700E-01     4.299403294E+00
     4264    -3.974676369E+00    -3.578328588E-08     3.976607958E+00
     4265    -3.356563853E+00    -2.515397253E-01     4.273968523E+00
     4266    -3.643513144E+00    -2.730436043E-01     4.535310391E+00
     4267    -3.551083136E+00    -3.833213317E-08     4.259862229E+00
     4268    -3.213445753E+00    -2.408145100E-01     4.659218023E+00
     4269    -2.919252765E+00    -2.187677900E-01     4.292657613E+00
     4270    -3.153522566E+00    -3.869576050E-08     4.300272349E+00
     4271    -2.692299823E+00    -2.017599827E-01     3.571428571E-01
     4272    -2.980752585E+00    -2.233765257E-01    -5.421010862E-17
     4273    -2.699849149E+00     9.872554961E-15     0.000000000E+00
     4274    -2.692299822E+00    -2.017599891E-01     1.071428571E+00
     4275    -2.699849149E+00    -6.427451682E-09     7.142857143E-01
     4276    -3.557658110E+00    -2.666096181E-01    -5.421010862E-17
     4277    -3.274886861E+00     8.484988756E-15     0.000000000E+00
     4278    -3.007547185E+00    -2.253845485E-01     5.000000000E+00
     4279    -2.692299820E+00    -2.017600211E-01     4.642857143E+00
     4280    -2.699849149E+00    -4.499222101E-08     5.000000000E+00
     4281    -3.532433578E+00    -2.647193450E-01     4.906229162E+00
     4282    -3.332111815E+00    -4.499222254E-08     5.000000000E+00
     4283    -2.692299820E+00    -2.017600147E-01     3.928571429E+00
     4284    -2.699849149E+00    -3.856475946E-08     4.285714286E+00
     4285    -3.951711633E+00    -2.961398898E-01     4.718687486E+00
     4286    -3.749084281E+00    -4.331861268E-08     4.814011127E+00
     4287    -2.692299821E+00    -2.017600083E-01     3.214285714E+00
     4288    -2.699849149E+00    -3.213729790E-08     3.571428571E+00
     4289    -4.790267743E+00    -3.589809794E-01     4.343604135E+00
     4290    -4.999999738E+00    -3.746982149E-01     3.824849510E+00
     4291    -5.000000000E+00    -3.829774921E-08     4.256040741E+00
     4292    -4.370989688E+00    -3.275604346E-01     4.531145811E+00
     4293    -4.583029214E+00    -3.997139297E-08     4.442033381E+00
     4294    -4.166056748E+00    -4.164500283E-08     4.628022254E+00
     4295    -4.999999997E+00    -3.746982267E-01     2.974882952E+00
     4296    -5.000000000E+00    -3.063819851E-08     3.404832593E+00
     4297    -2.692299821E+00    -2.017600019E-01     2.500000000E+00
     4298    -2.699849149E+00    -2.570983635E-08     2.857142857E+00
     4299    -4.999999997E+00    -3.746982190E-01     2.124916394E+00
     4300    -5.000000000E+00    -2.297864780E-08     2.553624445E+00
     4301    -2.692299822E+00    -2.017599955E-01     1.785714286E+00
     4302    -2.699849149E+00    -1.928237479E-08     2.142857143E+00
     4303    -2.699849149E+00    -1.285491324E-08     1.428571429E+00
     4304    -4.999999781E+00    -3.746981875E-01     4.249832789E-01
     4305    -4.711469159E+00    -3.530758028E-01    -1.084202172E-16
     4306    -5.000000000E+00     4.322290139E-15     1.084202172E-16
     4307    -4.999999997E+00    -3.746982114E-01     1.274949837E+00
     4308    -5.000000000E+00    -1.531909709E-08     1.702416296E+00
     4309    -5.000000000E+00    -7.659546385E-09     8.512081482E-01
     4310    -4.134563635E+00    -3.098427104E-01    -5.421010862E-17
     4311    -3.849924574E+00     7.097422551E-15     0.000000000E+00
     4312    -4.424962287E+00     5.709856345E-15     0.000000000E+00
     4313    -3.602048355E+00     2.699361758E-01     3.465072704E+00
     4314    -3.770915070E+00     2.825909887E-01     3.245884536E+00
     4315    -3.578100112E+00     2.681415017E-01     3.628550494E+00
     4316    -3.855227694E+00     2.889093418E-01     3.746064657E+00
     4317    -3.726117427E+00     5.616218055E-01     3.511522528E+00
     4318    -3.439982928E+00     2.577910501E-01     3.575309816E+00
     4319    -3.352793204E+00     2.512570869E-01     3.204073413E+00
     4320    -3.447348083E+00     5.196040885E-01     3.406839797E+00
     4321    -3.820205007E+00     2.862847644E-01     2.620808469E+00
     4322    -3.525350255E+00     2.641884522E-01     2.979295001E+00
     4323    -4.076790886E+00     3.055132125E-01     3.210557374E+00
     4324    -3.797933153E+00     5.724462895E-01     2.954849629E+00
     4325    -3.840691083E+00     2.878199900E-01     1.906980335E+00
     4326    -3.543567652E+00     2.655536639E-01     2.257730004E+00
     4327    -4.116716040E+00     3.085051966E-01     2.387054689E+00
     4328    -3.819362323E+00     5.756762232E-01     2.291227326E+00
     4329    -3.560694911E+00     2.668371813E-01     1.509808255E+00
     4330    -3.852597555E+00     2.887122634E-01     1.164777517E+00
     4331    -4.139377475E+00     3.102034435E-01     1.592447348E+00
     4332    -3.839306853E+00     5.786823843E-01     1.542493530E+00
     4333    -3.237581640E+00     2.426231695E-01     3.678953093E+00
     4334    -3.475251258E+00     2.604340422E-01     4.000654690E+00
     4335    -3.397000490E+00     5.120154069E-01     3.734104409E+00
     4336    -3.159408972E+00     2.367649412E-01     3.308410046E+00
     4337    -3.101619242E+00     2.324341938E-01     3.959993975E+00
     4338    -2.876029909E+00     2.155286137E-01     3.595297851E+00
     4339    -3.039290059E+00     4.580992356E-01     3.616811938E+00
     4340    -3.248712888E+00     2.434573509E-01     2.600450023E+00
     4341    -2.966977531E+00     2.223442017E-01     2.926728829E+00
     4342    -3.224389558E+00     4.859985017E-01     2.992728777E+00
     4343    -3.263569895E+00     2.445707365E-01     1.839285586E+00
     4344    -2.974309732E+00     2.228936810E-01     2.180861215E+00
     4345    -3.239238781E+00     4.882366690E-01     2.216206964E+00
     4346    -3.271609576E+00     2.451732340E-01     1.097571269E+00
     4347    -2.981560865E+00     2.234370848E-01     1.450978632E+00
     4348    -3.253881595E+00     4.904437248E-01     1.471552844E+00
     4349    -3.563512220E+00     2.670483162E-01     7.525405308E-01
     4350    -2.982348961E+00     2.234961510E-01     7.177760113E-01
     4351    -3.270841062E+00     2.451156485E-01     3.606331542E-01
     4352    -3.255423553E+00     4.906761443E-01     7.217294250E-01
     4353    -4.141195205E+00     3.103396706E-01     8.108134210E-01
     4354    -3.850447712E+00     2.885511619E-01     3.916621792E-01
     4355    -3.843356326E+00     5.792927510E-01     7.814126810E-01
     4356    -4.427975125E+00     3.318308507E-01     1.238483252E+00
     4357    -4.713881602E+00     3.532565827E-01     8.437528922E-01
     4358    -4.425450485E+00     3.316416625E-01     4.187865527E-01
     4359    -4.422105535E+00     6.665251581E-01     8.338605883E-01
     4360    -4.415401945E+00     3.308886138E-01     2.050546073E+00
     4361    -4.714094456E+00     3.532725265E-01     1.669134336E+00
     4362    -4.422585735E+00     6.665975293E-01     1.632735674E+00
     4363    -4.371771479E+00     3.276189542E-01     2.962906381E+00
     4364    -4.701308947E+00     3.523143775E-01     2.512339160E+00
     4365    -4.396764192E+00     6.627055504E-01     2.466504056E+00
     4366    -4.161103510E+00     3.118315657E-01     3.710737496E+00
     4367    -4.476981229E+00     3.355033263E-01     3.926339581E+00
     4368    -4.675959352E+00     3.504146797E-01     3.423694888E+00
     4369    -4.344744107E+00     6.548647755E-01     3.436846773E+00
     4370    -3.763340784E+00     2.820233665E-01     4.119011759E+00
     4371    -4.065914675E+00     3.046981433E-01     4.299324058E+00
     4372    -3.956844269E+00     5.963982774E-01     3.965572375E+00
     4373    -3.356630470E+00     2.515446406E-01     4.273938727E+00
     4374    -3.643612035E+00     2.730509334E-01     4.535266160E+00
     4375    -3.526717184E+00     5.315670480E-01     4.252962126E+00
     4376    -3.213476670E+00     2.408167428E-01     4.659204197E+00
     4377    -2.919273183E+00     2.187692428E-01     4.292648483E+00
     4378    -3.124342519E+00     4.709188251E-01     4.297546814E+00
     4379    -2.692299823E+00     2.017599763E-01     3.571428571E-01
     4380    -2.980791925E+00     2.233794738E-01    -1.084202172E-16
     4381    -2.669694064E+00     4.023916354E-01     0.000000000E+00
     4382    -2.692299824E+00     2.017599699E-01     1.071428571E+00
     4383    -2.669694065E+00     4.023916291E-01     7.142857143E-01
     4384    -3.557776128E+00     2.666184623E-01    -1.084202172E-16
     4385    -3.252279376E+00     4.902022424E-01    -5.421010862E-17
     4386    -3.007547192E+00     2.253844589E-01     5.000000000E+00
     4387    -2.692299826E+00     2.017599379E-01     4.642857143E+00
     4388    -2.669694071E+00     4.023915912E-01     5.000000000E+00
     4389    -3.532480793E+00     2.647227948E-01     4.906208046E+00
     4390    -3.294894886E+00     4.966254518E-01     5.000000000E+00
     4391    -2.692299825E+00     2.017599443E-01     3.928571429E+00
     4392    -2.669694070E+00     4.023915975E-01     4.285714286E+00
     4393    -3.951853265E+00     2.961504185E-01     4.718624138E+00
     4394    -3.721184212E+00     5.608782313E-01     4.807707632E+00
     4395    -2.692299825E+00     2.017599507E-01     3.214285714E+00
     4396    -2.669694069E+00     4.023916039E-01     3.571428571E+00
     4397    -4.790598207E+00     3.590056660E-01     4.343456322E+00
     4398    -5.000000797E+00     3.746982254E-01     3.824697055E+00
     4399    -5.000050588E+00     7.536363279E-01     4.230826891E+00
     4400    -4.371225736E+00     3.275780423E-01     4.531040230E+00
     4401    -4.573762866E+00     6.893837903E-01     4.423122897E+00
     4402    -4.147473539E+00     6.251310108E-01     4.615415265E+00
     4403    -5.000000008E+00     3.746981739E-01     2.974764376E+00
     4404    -5.000001056E+00     7.536288698E-01     3.384661513E+00
     4405    -2.692299824E+00     2.017599571E-01     2.500000000E+00
     4406    -2.669694068E+00     4.023916102E-01     2.857142857E+00
     4407    -5.000000008E+00     3.746981816E-01     2.124831697E+00
     4408    -5.000000988E+00     7.536288672E-01     2.538496135E+00
     4409    -2.692299824E+00     2.017599635E-01     1.785714286E+00
     4410    -2.669694067E+00     4.023916165E-01     2.142857143E+00
     4411    -2.669694066E+00     4.023916228E-01     1.428571429E+00
     4412    -5.000000665E+00     3.746982461E-01     4.249663394E-01
     4413    -4.711744536E+00     3.530964394E-01    -1.626303259E-16
     4414    -5.000035309E+00     7.536340633E-01    -2.119018936E-12
     4415    -5.000000008E+00     3.746981892E-01     1.274899018E+00
     4416    -5.000000920E+00     7.536288646E-01     1.692330756E+00
     4417    -5.000000852E+00     7.536288621E-01     8.461653782E-01
     4418    -4.134760332E+00     3.098574508E-01    -1.084202172E-16
     4419    -3.834864687E+00     5.780128494E-01    -1.084202172E-16
     4420    -4.417449998E+00     6.658234563E-01    -5.421010862E-17
     4421    -3.561401150E+00     8.128665408E-01     3.449077622E+00
     4422    -3.737443059E+00     8.530469598E-01     3.226809132E+00
     4423    -3.535017164E+00     8.068445667E-01     3.613036647E+00
     4424    -3.818808014E+00     8.716179752E-01     3.725655698E+00
     4425    -3.670680688E+00     1.132255009E+00     3.482993458E+00
     4426    -3.393522022E+00     7.745492243E-01     3.562237422E+00
     4427    -3.307816494E+00     7.549875003E-01     3.192429038E+00
     4428    -3.381797244E+00     1.043146269E+00     3.385866580E+00
     4429    -3.789464957E+00     8.649206241E-01     2.605812607E+00
     4430    -3.486924403E+00     7.958677137E-01     2.965414448E+00
     4431    -4.052441164E+00     9.249432220E-01     3.186023722E+00
     4432    -3.751668959E+00     1.157236587E+00     2.927150539E+00
     4433    -3.810484554E+00     8.697182165E-01     1.896801514E+00
     4434    -3.505616363E+00     8.001340381E-01     2.246836166E+00
     4435    -4.093705232E+00     9.343614838E-01     2.368200661E+00
     4436    -3.773922378E+00     1.164100864E+00     2.268680072E+00
     4437    -3.523189717E+00     8.041450482E-01     1.502247541E+00
     4438    -3.822700745E+00     8.725064890E-01     1.157109996E+00
     4439    -4.116956763E+00     9.396685011E-01     1.579661927E+00
     4440    -3.794638367E+00     1.170490907E+00     1.526794596E+00
     4441    -3.186000253E+00     7.271837338E-01     3.669463813E+00
     4442    -3.427400942E+00     7.822818628E-01     3.987029358E+00
     4443    -3.324463844E+00     1.025461254E+00     3.714631598E+00
     4444    -3.107786477E+00     7.093319530E-01     3.300244042E+00
     4445    -3.045568046E+00     6.951309962E-01     3.953939267E+00
     4446    -2.818772682E+00     6.433664377E-01     3.592100484E+00
     4447    -2.958266908E+00     9.125044597E-01     3.606916421E+00
     4448    -3.203075565E+00     7.310810721E-01     2.593052332E+00
     4449    -2.913942640E+00     6.650883657E-01     2.921861269E+00
     4450    -3.155844220E+00     9.734489948E-01     2.977664626E+00
     4451    -3.218319607E+00     7.345604321E-01     1.834222106E+00
     4452    -2.921519437E+00     6.668177270E-01     2.177252897E+00
     4453    -3.171418936E+00     9.782531656E-01     2.205039928E+00
     4454    -3.226568213E+00     7.364431293E-01     1.095046203E+00
     4455    -2.928959457E+00     6.685158695E-01     1.448490592E+00
     4456    -3.186631527E+00     9.829456352E-01     1.463852851E+00
     4457    -3.526079241E+00     8.048045701E-01     7.499086585E-01
     4458    -2.929767480E+00     6.687003022E-01     7.177760113E-01
     4459    -3.225779044E+00     7.362630134E-01     3.606331542E-01
     4460    -3.188441434E+00     9.835039246E-01     7.216148360E-01
     4461    -4.118820614E+00     9.400939201E-01     8.031242601E-01
     4462    -3.820493614E+00     8.720027329E-01     3.890673332E-01
     4463    -3.799055725E+00     1.171853489E+00     7.733821418E-01
     4464    -4.413076632E+00     1.007255932E+00     1.225676191E+00
     4465    -4.706435305E+00     1.074213138E+00     8.336000417E-01
     4466    -4.410485024E+00     1.006664422E+00     4.137473081E-01
     4467    -4.400128452E+00     1.357259870E+00     8.182651150E-01
     4468    -4.400176625E+00     1.004311582E+00     2.032403898E+00
     4469    -4.706654843E+00     1.074263239E+00     1.651214062E+00
     4470    -4.400412202E+00     1.357347388E+00     1.608927158E+00
     4471    -4.355409680E+00     9.940938111E-01     2.936613134E+00
     4472    -4.693536924E+00     1.071269152E+00     2.485628738E+00
     4473    -4.373599727E+00     1.349076827E+00     2.431317363E+00
     4474    -4.133806119E+00     9.435142375E-01     3.684870288E+00
     4475    -4.456404126E+00     1.017145126E+00     3.894920167E+00
     4476    -4.666454564E+00     1.065087772E+00     3.388563948E+00
     4477    -4.316485708E+00     1.331459477E+00     3.391425672E+00
     4478    -3.720299437E+00     8.491340320E-01     4.100363979E+00
     4479    -4.029591328E+00     9.197278861E-01     4.275349127E+00
     4480    -3.904112981E+00     1.204259331E+00     3.930938707E+00
     4481    -3.301362733E+00     7.535144616E-01     4.264919316E+00
     4482    -3.591484781E+00     8.197329234E-01     4.521876924E+00
     4483    -3.454493364E+00     1.065570044E+00     4.231306785E+00
     4484    -3.150840723E+00     7.191587914E-01     4.655018922E+00
     4485    -2.860102443E+00     6.527996796E-01     4.289884627E+00
     4486    -3.037584452E+00     9.369706755E-01     4.288992969E+00
     4487    -2.632158294E+00     6.007729510E-01     3.571428571E-01
     4488    -2.928169859E+00     6.683356623E-01    -1.084202172E-16
     4489    -2.579902426E+00     7.957945067E-01    -1.084202172E-16
     4490    -2.632158296E+00     6.007729448E-01     1.071428571E+00
     4491    -2.579902428E+00     7.957945007E-01     7.142857143E-01
     4492    -3.520192990E+00     8.034610786E-01    -1.084202172E-16
     4493    -3.185177939E+00     9.824972763E-01    -1.084202172E-16
     4494    -2.940363564E+00     6.711187503E-01     5.000000000E+00
     4495    -2.632158303E+00     6.007729139E-01     4.642857143E+00
     4496    -2.579902439E+00     7.957944647E-01     5.000000000E+00
     4497    -3.467542348E+00     7.914438686E-01     4.899815926E+00
     4498    -3.184075449E+00     9.821571572E-01     5.000000000E+00
     4499    -2.632158301E+00     6.007729201E-01     3.928571429E+00
     4500    -2.579902437E+00     7.957944707E-01     4.285714286E+00
     4501    -3.905489396E+00     8.914024262E-01     4.699447779E+00
     4502    -3.638408473E+00     1.122300337E+00     4.787924691E+00
     4503    -2.632158300E+00     6.007729263E-01     3.214285714E+00
     4504    -2.579902435E+00     7.957944767E-01     3.571428571E+00
     4505    -4.781383491E+00     1.091319541E+00     4.298711484E+00
     4506    -5.000009250E+00     1.141219449E+00     3.778674602E+00
     4507    -5.001407586E+00     1.542729889E+00     4.151698859E+00
     4508    -4.343436444E+00     9.913609837E-01     4.499079631E+00
     4509    -4.547074521E+00     1.402586697E+00     4.363774073E+00
     4510    -4.092741497E+00     1.262443517E+00     4.575849382E+00
     4511    -5.000000797E+00     1.141217527E+00     2.938969135E+00
     4512    -5.000115287E+00     1.542331276E+00     3.321359087E+00
     4513    -2.632158299E+00     6.007729325E-01     2.500000000E+00
     4514    -2.579902434E+00     7.957944827E-01     2.857142857E+00
     4515    -5.000000745E+00     1.141217523E+00     2.099263668E+00
     4516    -5.000108283E+00     1.542329123E+00     2.491019315E+00
     4517    -2.632158297E+00     6.007729386E-01     1.785714286E+00
     4518    -2.579902432E+00     7.957944887E-01     2.142857143E+00
     4519    -2.579902430E+00     7.957944947E-01     1.428571429E+00
     4520    -5.000006543E+00     1.141218862E+00     4.198527336E-01
     4521    -4.704239252E+00     1.073711911E+00    -1.084202172E-16
     4522    -5.001004478E+00     1.542605585E+00    -2.993525566E-11
     4523    -5.000000693E+00     1.141217519E+00     1.259558201E+00
     4524    -5.000101279E+00     1.542326970E+00     1.660679544E+00
     4525    -5.000094274E+00     1.542324817E+00     8.303397717E-01
     4526    -4.112216121E+00     9.385864949E-01    -1.084202172E-16
     4527    -3.790453452E+00     1.169200046E+00    -1.084202172E-16
     4528    -4.395728965E+00     1.355902816E+00    -1.084202172E-16
     4529    -3.481042007E+00     1.366208280E+00     3.415167029E+00
     4530    -3.671266970E+00     1.440866079E+00     3.186366771E+00
     4531    -3.449846775E+00     1.353965052E+00     3.580146999E+00
     4532    -3.746821154E+00     1.470518906E+00     3.682387837E+00
     4533    -3.579455893E+00     1.723775075E+00     3.431859831E+00
     4534    -3.301668458E+00     1.295809349E+00     3.534523962E+00
     4535    -3.218884136E+00     1.263318900E+00     3.167741856E+00
     4536    -3.273982869E+00     1.576667021E+00     3.348275628E+00
     4537    -3.728685824E+00     1.463401324E+00     2.574019001E+00
     4538    -3.410942577E+00     1.338696285E+00     2.935985472E+00
     4539    -4.004306302E+00     1.571574385E+00     3.134008595E+00
     4540    -3.675740071E+00     1.770143096E+00     2.877504159E+00
     4541    -3.750759066E+00     1.472064439E+00     1.875220799E+00
     4542    -3.430572191E+00     1.346400348E+00     2.223739502E+00
     4543    -4.048215653E+00     1.588807543E+00     2.328227132E+00
     4544    -3.699343775E+00     1.781510047E+00     2.228267572E+00
     4545    -3.449027437E+00     1.353643505E+00     1.486217627E+00
     4546    -3.763599849E+00     1.477104082E+00     1.140853635E+00
     4547    -4.072632505E+00     1.598390458E+00     1.552554806E+00
     4548    -3.721314768E+00     1.792090727E+00     1.498656660E+00
     4549    -3.084016710E+00     1.210387331E+00     3.649347068E+00
     4550    -3.332807958E+00     1.308030698E+00     3.958144415E+00
     4551    -3.204992685E+00     1.543443096E+00     3.679730181E+00
     4552    -3.005713725E+00     1.179655678E+00     3.282932133E+00
     4553    -2.934734961E+00     1.151798560E+00     3.941103624E+00
     4554    -2.705546349E+00     1.061848661E+00     3.585322243E+00
     4555    -2.825048521E+00     1.360471631E+00     3.589180535E+00
     4556    -3.112827426E+00     1.221694714E+00     2.577368055E+00
     4557    -2.809061645E+00     1.102475427E+00     2.911541288E+00
     4558    -3.043314025E+00     1.465582764E+00     2.950664449E+00
     4559    -3.128836216E+00     1.227977708E+00     1.823486726E+00
     4560    -2.817121617E+00     1.105638740E+00     2.169602690E+00
     4561    -3.060083293E+00     1.473658425E+00     2.185024725E+00
     4562    -3.137510003E+00     1.231381926E+00     1.089692664E+00
     4563    -2.824935239E+00     1.108705368E+00     1.443215555E+00
     4564    -3.076219906E+00     1.481429415E+00     1.450051793E+00
     4565    -3.452082415E+00     1.354842503E+00     7.443286716E-01
     4566    -2.825794065E+00     1.109042439E+00     7.177760113E-01
     4567    -3.136691470E+00     1.231060682E+00     3.606331542E-01
     4568    -3.078158914E+00     1.482363199E+00     7.214094526E-01
     4569    -4.074610915E+00     1.599166934E+00     7.868220189E-01
     4570    -3.761302460E+00     1.476202430E+00     3.835658479E-01
     4571    -3.726020568E+00     1.794356927E+00     7.589886295E-01
     4572    -4.383643571E+00     1.720453310E+00     1.198523191E+00
     4573    -4.691741381E+00     1.841372794E+00     8.120743877E-01
     4574    -4.380930120E+00     1.719388367E+00     4.030633098E-01
     4575    -4.363757835E+00     2.101475009E+00     7.903126163E-01
     4576    -4.370086289E+00     1.715132462E+00     1.993939609E+00
     4577    -4.691964353E+00     1.841460296E+00     1.613220240E+00
     4578    -4.364040068E+00     2.101610918E+00     1.566254038E+00
     4579    -4.323074206E+00     1.696681570E+00     2.880867279E+00
     4580    -4.678191938E+00     1.836055014E+00     2.428998405E+00
     4581    -4.335607480E+00     2.087918497E+00     2.368250599E+00
     4582    -4.079860485E+00     1.601227212E+00     3.630029661E+00
     4583    -4.415758585E+00     1.733057500E+00     3.828308527E+00
     4584    -4.647689092E+00     1.824083521E+00     3.314081169E+00
     4585    -4.270022001E+00     2.056334186E+00     3.310015477E+00
     4586    -3.635230252E+00     1.426722701E+00     4.060831619E+00
     4587    -3.957816348E+00     1.553328412E+00     4.224522781E+00
     4588    -3.817107947E+00     1.838222268E+00     3.868863878E+00
     4589    -3.192087499E+00     1.252801985E+00     4.245798666E+00
     4590    -3.488432788E+00     1.369108938E+00     4.493492491E+00
     4591    -3.335493392E+00     1.606288919E+00     4.192493587E+00
     4592    -3.026979911E+00     1.188002028E+00     4.646146372E+00
     4593    -2.743090594E+00     1.076583685E+00     4.284025406E+00
     4594    -2.894976398E+00     1.394147115E+00     4.273661782E+00
     4595    -2.513218699E+00     9.863656507E-01     3.571428571E-01
     4596    -2.824116103E+00     1.108383894E+00    -1.084202172E-16
     4597    -2.432480031E+00     1.171420644E+00    -1.626303259E-16
     4598    -2.513218701E+00     9.863656449E-01     1.071428571E+00
     4599    -2.432480034E+00     1.171420638E+00     7.142857143E-01
     4600    -3.445910913E+00     1.352420374E+00    -2.168404345E-16
     4601    -3.074696524E+00     1.480695806E+00    -2.710505431E-16
     4602    -2.807497073E+00     1.101861358E+00     5.000000000E+00
     4603    -2.513218712E+00     9.863656161E-01     4.642857143E+00
     4604    -2.432480049E+00     1.171420605E+00     5.000000000E+00
     4605    -3.339134252E+00     1.310513577E+00     4.886264989E+00
     4606    -3.002129028E+00     1.445749095E+00     5.000000000E+00
     4607    -2.513218710E+00     9.863656219E-01     3.928571429E+00
     4608    -2.432480047E+00     1.171420611E+00     4.285714286E+00
     4609    -3.813851891E+00     1.496826523E+00     4.658794966E+00
     4610    -3.502120460E+00     1.686532281E+00     4.752467423E+00
     4611    -2.513218708E+00     9.863656277E-01     3.214285714E+00
     4612    -2.432480044E+00     1.171420616E+00     3.571428571E+00
     4613    -4.763287171E+00     1.869452415E+00     4.203854920E+00
     4614    -5.000048144E+00     1.962374255E+00     3.681099701E+00
     4615    -5.002096476E+00     2.408882666E+00     4.009873972E+00
     4616    -4.288569531E+00     1.683139469E+00     4.431324943E+00
     4617    -4.502103324E+00     2.168098652E+00     4.257402270E+00
     4618    -4.002111892E+00     1.927315466E+00     4.504934847E+00
     4619    -5.000010136E+00     1.962359345E+00     2.863077545E+00
     4620    -5.000366416E+00     2.408049520E+00     3.207899178E+00
     4621    -2.513218706E+00     9.863656334E-01     2.500000000E+00
     4622    -2.432480041E+00     1.171420622E+00     2.857142857E+00
     4623    -5.000009265E+00     1.962359011E+00     2.045055389E+00
     4624    -5.000338160E+00     2.408035921E+00     2.405924383E+00
     4625    -2.513218703E+00     9.863656392E-01     1.785714286E+00
     4626    -2.432480039E+00     1.171420627E+00     2.142857143E+00
     4627    -2.432480036E+00     1.171420633E+00     1.428571429E+00
     4628    -5.000030537E+00     1.962367375E+00     4.090110779E-01
     4629    -4.689500534E+00     1.840493334E+00    -1.626303259E-16
     4630    -5.001346002E+00     2.408521294E+00    -2.643387896E-11
     4631    -5.000008395E+00     1.962358677E+00     1.227033234E+00
     4632    -5.000309904E+00     2.408022321E+00     1.603949589E+00
     4633    -5.000281648E+00     2.408008721E+00     8.019747944E-01
     4634    -4.067705724E+00     1.596456854E+00    -1.626303259E-16
     4635    -3.716913016E+00     1.789970969E+00    -2.168404345E-16
     4636    -4.359129509E+00     2.099246132E+00    -2.168404345E-16
     4637    -3.362566502E+00     1.941378642E+00     3.359149931E+00
     4638    -3.573734244E+00     2.063296398E+00     3.119562642E+00
     4639    -3.324240098E+00     1.919250882E+00     3.525814872E+00
     4640    -3.640584543E+00     2.101892431E+00     3.610912460E+00
     4641    -3.281899516E+00     2.237561169E+00     3.432525688E+00
     4642    -3.166240537E+00     1.828029792E+00     3.488742077E+00
     4643    -3.087867951E+00     1.782781363E+00     3.126961768E+00
     4644    -3.001874538E+00     2.046643372E+00     3.348765326E+00
     4645    -3.639141490E+00     2.101059295E+00     2.521502093E+00
     4646    -3.299035694E+00     1.904699118E+00     2.887374479E+00
     4647    -3.933339980E+00     2.270914867E+00     3.048089397E+00
     4648    -3.370576413E+00     2.298020059E+00     2.878149516E+00
     4649    -3.662771570E+00     2.114702134E+00     1.839573618E+00
     4650    -3.320048911E+00     1.916831111E+00     2.185588266E+00
     4651    -3.981157740E+00     2.298522471E+00     2.262198569E+00
     4652    -3.392233198E+00     2.312785411E+00     2.228792896E+00
     4653    -3.339802881E+00     1.928236078E+00     1.459739300E+00
     4654    -3.676470606E+00     2.122611283E+00     1.114001260E+00
     4655    -4.007296494E+00     2.313613695E+00     1.507779069E+00
     4656    -3.412387100E+00     2.326526117E+00     1.499022426E+00
     4657    -2.933696699E+00     1.693770544E+00     3.616113614E+00
     4658    -3.193280301E+00     1.843641204E+00     3.910425640E+00
     4659    -2.938313265E+00     2.003308027E+00     3.680185838E+00
     4660    -2.855324114E+00     1.648522114E+00     3.254333305E+00
     4661    -2.771460259E+00     1.600103289E+00     3.919898764E+00
     4662    -2.538808614E+00     1.465781802E+00     3.574124391E+00
     4663    -2.590298370E+00     1.766035490E+00     3.589412087E+00
     4664    -2.979943115E+00     1.720470935E+00     2.551460652E+00
     4665    -2.654653462E+00     1.532664863E+00     2.894494628E+00
     4666    -2.790736504E+00     1.902691902E+00     2.951015455E+00
     4667    -2.997080222E+00     1.730365056E+00     1.805753948E+00
     4668    -2.663427612E+00     1.537730628E+00     2.156966024E+00
     4669    -2.806132723E+00     1.913188874E+00     2.185284904E+00
     4670    -3.006319130E+00     1.735699149E+00     1.080849649E+00
     4671    -2.671790566E+00     1.542558989E+00     1.434502210E+00
     4672    -2.820924746E+00     1.923273912E+00     1.450231194E+00
     4673    -3.342986855E+00     1.930074354E+00     7.351116090E-01
     4674    -2.672666517E+00     1.543064726E+00     7.177760113E-01
     4675    -3.005399272E+00     1.735168075E+00     3.606331542E-01
     4676    -2.822289157E+00     1.924204159E+00     7.214121224E-01
     4677    -4.009325382E+00     2.314785081E+00     7.598938594E-01
     4678    -3.673923801E+00     2.121140892E+00     3.744784549E-01
     4679    -3.416281903E+00     2.329181556E+00     7.591757316E-01
     4680    -4.340151270E+00     2.505787493E+00     1.153671669E+00
     4681    -4.669936070E+00     2.696188840E+00     7.765181573E-01
     4682    -4.337203312E+00     2.504085496E+00     3.854154045E-01
     4683    -4.001000163E+00     2.727835715E+00     7.906759725E-01
     4684    -4.325682664E+00     2.497434032E+00     1.930404020E+00
     4685    -4.670215204E+00     2.696349990E+00     1.550461770E+00
     4686    -4.001684503E+00     2.728302283E+00     1.566808748E+00
     4687    -4.275356230E+00     2.468378043E+00     2.788785873E+00
     4688    -4.655467468E+00     2.687835373E+00     2.335456014E+00
     4689    -3.975582349E+00     2.710506127E+00     2.369070408E+00
     4690    -4.000190279E+00     2.309510900E+00     3.539439215E+00
     4691    -4.355600461E+00     2.514707063E+00     3.718273440E+00
     4692    -4.619888774E+00     2.667293996E+00     3.191049129E+00
     4693    -3.915228822E+00     2.669357780E+00     3.311074297E+00
     4694    -3.509624746E+00     2.026282753E+00     3.995523228E+00
     4695    -3.851724891E+00     2.223794363E+00     4.140557979E+00
     4696    -3.499403770E+00     2.385853054E+00     3.869673091E+00
     4697    -3.031043860E+00     1.749973948E+00     4.214210790E+00
     4698    -3.336458299E+00     1.926305054E+00     4.446600572E+00
     4699    -3.057895102E+00     2.084837538E+00     4.193000314E+00
     4700    -2.844567377E+00     1.642311696E+00     4.631488659E+00
     4701    -2.570789610E+00     1.484246032E+00     4.274345801E+00
     4702    -2.654484294E+00     1.809796706E+00     4.273861939E+00
     4703    -2.338137951E+00     1.349924572E+00     3.571428571E-01
     4704    -2.670870705E+00     1.542027921E+00    -1.084202172E-16
     4705    -2.230720051E+00     1.520879179E+00    -1.084202172E-16
     4706    -2.338137954E+00     1.349924567E+00     1.071428571E+00
     4707    -2.230720055E+00     1.520879174E+00     7.142857143E-01
     4708    -3.336336218E+00     1.926234614E+00    -1.084202172E-16
     4709    -2.819110732E+00     1.922037153E+00    -1.084202172E-16
     4710    -2.611915735E+00     1.507990205E+00     5.000000000E+00
     4711    -2.338137968E+00     1.349924541E+00     4.642857143E+00
     4712    -2.230720074E+00     1.520879145E+00     5.000000000E+00
     4713    -3.149981815E+00     1.818642802E+00     4.863878441E+00
     4714    -2.753120005E+00     1.877045387E+00     5.000000000E+00
     4715    -2.338137965E+00     1.349924546E+00     3.928571429E+00
     4716    -2.230720071E+00     1.520879150E+00     4.285714286E+00
     4717    -3.678558444E+00     2.123816664E+00     4.591635323E+00
     4718    -3.210782590E+00     2.189074457E+00     4.752930337E+00
     4719    -2.338137963E+00     1.349924551E+00     3.214285714E+00
     4720    -2.230720068E+00     1.520879155E+00     3.571428571E+00
     4721    -4.735711702E+00     2.734164387E+00     4.047149087E+00
     4722    -5.000000020E+00     2.886751323E+00     3.519924775E+00
     4723    -4.583768949E+00     3.125160714E+00     4.011717563E+00
     4724    -4.207135073E+00     2.428990525E+00     4.319392205E+00
     4725    -4.126107759E+00     2.813132596E+00     4.258791012E+00
     4726    -3.668445175E+00     2.501103526E+00     4.505860675E+00
     4727    -5.000000020E+00     2.886751331E+00     2.737719270E+00
     4728    -4.585014310E+00     3.126009794E+00     3.209374050E+00
     4729    -2.338137960E+00     1.349924556E+00     2.500000000E+00
     4730    -2.230720065E+00     1.520879160E+00     2.857142857E+00
     4731    -5.000000014E+00     2.886751335E+00     1.955513764E+00
     4732    -4.585033651E+00     3.126022989E+00     2.407030538E+00
     4733    -2.338137957E+00     1.349924561E+00     1.785714286E+00
     4734    -2.230720061E+00     1.520879165E+00     2.142857143E+00
     4735    -2.230720058E+00     1.520879170E+00     1.428571429E+00
     4736    -5.000000003E+00     2.886751344E+00     3.911027528E-01
     4737    -4.667267244E+00     2.694647999E+00    -1.084202172E-16
     4738    -4.584282775E+00     3.125511074E+00    -2.043731937E-11
     4739    -5.000000009E+00     2.886751340E+00     1.173308258E+00
     4740    -4.585052992E+00     3.126036183E+00     1.604687025E+00
     4741    -4.585072333E+00     3.126049377E+00     8.023435125E-01
     4742    -4.001801731E+00     2.310441307E+00    -1.084202172E-16
     4743    -3.407501413E+00     2.323195127E+00    -2.168404345E-16
     4744    -3.995892094E+00     2.724353100E+00    -2.168404345E-16
     4745    -2.923524384E+00     2.331432863E+00     3.415339748E+00
     4746    -3.083348679E+00     2.458888488E+00     3.186574243E+00
     4747    -2.897280994E+00     2.310504457E+00     3.580313715E+00
     4748    -3.146673503E+00     2.509388344E+00     3.682607716E+00
     4749    -2.815587253E+00     2.612483151E+00     3.483404382E+00
     4750    -2.772842704E+00     2.211268232E+00     3.534664139E+00
     4751    -2.703411444E+00     2.155898653E+00     3.167868019E+00
     4752    -2.594018026E+00     2.406896953E+00     3.386168724E+00
     4753    -3.131588971E+00     2.497358843E+00     2.574182576E+00
     4754    -2.864754619E+00     2.284565545E+00     2.936136882E+00
     4755    -3.363071765E+00     2.681960206E+00     3.134276084E+00
     4756    -2.877958060E+00     2.670354808E+00     2.927549208E+00
     4757    -3.150108666E+00     2.512127814E+00     1.875331829E+00
     4758    -2.881228579E+00     2.297703096E+00     2.223858332E+00
     4759    -3.399933145E+00     2.711356184E+00     2.328432792E+00
     4760    -2.895031319E+00     2.686196484E+00     2.269004592E+00
     4761    -2.896701979E+00     2.310042729E+00     1.486300100E+00
     4762    -3.160630625E+00     2.520518804E+00     1.140937272E+00
     4763    -3.420412648E+00     2.727688050E+00     1.552694270E+00
     4764    -2.910918952E+00     2.700938061E+00     1.527020548E+00
     4765    -2.590057261E+00     2.065501704E+00     3.649448226E+00
     4766    -2.798937241E+00     2.232077926E+00     3.958289664E+00
     4767    -2.549845993E+00     2.365911292E+00     3.714912390E+00
     4768    -2.524345937E+00     2.013098676E+00     3.283019686E+00
     4769    -2.464741201E+00     1.965565478E+00     3.941168168E+00
     4770    -2.272301384E+00     1.812099849E+00     3.585356328E+00
     4771    -2.269151034E+00     2.105464432E+00     3.607059111E+00
     4772    -2.614384699E+00     2.084902200E+00     2.577448749E+00
     4773    -2.359281935E+00     1.881464530E+00     2.911594361E+00
     4774    -2.420911188E+00     2.246277284E+00     2.977881449E+00
     4775    -2.627820270E+00     2.095616717E+00     1.823541958E+00
     4776    -2.366047403E+00     1.886859818E+00     2.169642050E+00
     4777    -2.432866505E+00     2.257370205E+00     2.205200653E+00
     4778    -2.634843518E+00     2.101217578E+00     1.089720208E+00
     4779    -2.372597824E+00     1.892083612E+00     1.443242694E+00
     4780    -2.444528755E+00     2.268191199E+00     1.463963676E+00
     4781    -2.898772163E+00     2.311693653E+00     7.443573801E-01
     4782    -2.373069563E+00     1.892459819E+00     7.177760113E-01
     4783    -2.633904293E+00     2.100468579E+00     3.606331542E-01
     4784    -2.445626089E+00     2.269209384E+00     7.216164852E-01
     4785    -3.421562879E+00     2.728605337E+00     7.869058923E-01
     4786    -3.158195931E+00     2.518577208E+00     3.835941525E-01
     4787    -2.914011925E+00     2.703807928E+00     7.734977241E-01
     4788    -3.681344903E+00     2.935774583E+00     1.198662890E+00
     4789    -3.940070184E+00     3.142101114E+00     8.121851351E-01
     4790    -3.678778073E+00     2.933727612E+00     4.031182779E-01
     4791    -3.375083853E+00     3.131620158E+00     8.184895782E-01
     4792    -3.670227212E+00     2.926908512E+00     1.994137504E+00
     4793    -3.940529214E+00     3.142467170E+00     1.613415714E+00
     4794    -3.375601610E+00     3.132100557E+00     1.609269830E+00
     4795    -3.630776243E+00     2.895447405E+00     2.881154086E+00
     4796    -3.928994057E+00     3.133268181E+00     2.429289763E+00
     4797    -3.355027548E+00     3.113010609E+00     2.431823799E+00
     4798    -3.426396589E+00     2.732460062E+00     3.630309556E+00
     4799    -3.708454590E+00     2.957393811E+00     3.828648357E+00
     4800    -3.903381308E+00     3.112842686E+00     3.314463931E+00
     4801    -3.311091769E+00     3.072244154E+00     3.392079561E+00
     4802    -3.052852039E+00     2.434568220E+00     4.061030529E+00
     4803    -3.323738823E+00     2.650593220E+00     4.224779313E+00
     4804    -2.994408648E+00     2.778405152E+00     3.931437794E+00
     4805    -2.680833608E+00     2.137893420E+00     4.245894814E+00
     4806    -2.929649381E+00     2.336317374E+00     4.493635222E+00
     4807    -2.649544269E+00     2.458417768E+00     4.231619049E+00
     4808    -2.542251737E+00     2.027378061E+00     4.646190988E+00
     4809    -2.303842519E+00     1.837253057E+00     4.284054870E+00
     4810    -2.330029973E+00     2.161951825E+00     4.289116313E+00
     4811    -2.110827064E+00     1.683328408E+00     3.571428571E-01
     4812    -2.371661795E+00     1.891337169E+00    -1.084202172E-16
     4813    -1.979129472E+00     1.836363787E+00    -1.626303259E-16
     4814    -2.110827068E+00     1.683328404E+00     1.071428571E+00
     4815    -1.979129476E+00     1.836363783E+00     7.142857143E-01
     4816    -2.893331259E+00     2.307354685E+00    -1.626303259E-16
     4817    -2.443119982E+00     2.266884065E+00    -2.168404345E-16
     4818    -2.357988516E+00     1.880433042E+00     5.000000000E+00
     4819    -2.110827085E+00     1.683328382E+00     4.642857143E+00
     4820    -1.979129498E+00     1.836363759E+00     5.000000000E+00
     4821    -2.804385788E+00     2.236422988E+00     4.886333130E+00
     4822    -2.442610829E+00     2.266411587E+00     5.000000000E+00
     4823    -2.110827082E+00     1.683328386E+00     3.928571429E+00
     4824    -1.979129495E+00     1.836363763E+00     4.285714286E+00
     4825    -3.202857473E+00     2.554193556E+00     4.658999389E+00
     4826    -2.790676076E+00     2.589368942E+00     4.788209956E+00
     4827    -2.110827078E+00     1.683328391E+00     3.214285714E+00
     4828    -1.979129491E+00     1.836363767E+00     3.571428571E+00
     4829    -3.999800845E+00     3.189734692E+00     4.204331908E+00
     4830    -4.199415773E+00     3.348922291E+00     3.681601714E+00
     4831    -3.834871135E+00     3.558240375E+00     4.152837736E+00
     4832    -3.601329159E+00     2.871964124E+00     4.431665648E+00
     4833    -3.486806570E+00     3.235283652E+00     4.364629867E+00
     4834    -3.138741323E+00     2.912326297E+00     4.576419911E+00
     4835    -4.199434115E+00     3.348936926E+00     2.863468000E+00
     4836    -3.835601975E+00     3.558918503E+00     3.322270189E+00
     4837    -2.110827075E+00     1.683328395E+00     2.500000000E+00
     4838    -1.979129487E+00     1.836363771E+00     2.857142857E+00
     4839    -4.199428647E+00     3.348932574E+00     2.045334286E+00
     4840    -3.835605799E+00     3.558922060E+00     2.491702642E+00
     4841    -2.110827071E+00     1.683328400E+00     1.785714286E+00
     4842    -1.979129483E+00     1.836363775E+00     2.142857143E+00
     4843    -1.979129480E+00     1.836363779E+00     1.428571429E+00
     4844    -4.199305250E+00     3.348834185E+00     4.090668571E-01
     4845    -3.936670189E+00     3.139389717E+00    -2.168404345E-16
     4846    -3.835091513E+00     3.558444899E+00    -1.963566029E-11
     4847    -4.199423179E+00     3.348928222E+00     1.227200571E+00
     4848    -3.835609623E+00     3.558925617E+00     1.661135095E+00
     4849    -3.835613447E+00     3.558929174E+00     8.305675473E-01
     4850    -3.415000724E+00     2.723372201E+00    -1.626303259E-16
     4851    -2.907110493E+00     2.697404343E+00    -2.168404345E-16
     4852    -3.371101003E+00     3.127924621E+00    -3.252606517E-16
     4853    -2.484601649E+00     2.677763696E+00     3.449162772E+00
     4854    -2.607454154E+00     2.810167209E+00     3.226910388E+00
     4855    -2.466171348E+00     2.657900554E+00     3.613119393E+00
     4856    -2.664152629E+00     2.871273627E+00     3.725764443E+00
     4857    -2.349429097E+00     2.946090863E+00     3.511536118E+00
     4858    -2.367459221E+00     2.551514182E+00     3.562307205E+00
     4859    -2.307714625E+00     2.487124826E+00     3.192490944E+00
     4860    -2.173657123E+00     2.725679781E+00     3.406849740E+00
     4861    -2.643766803E+00     2.849302944E+00     2.605892116E+00
     4862    -2.432696964E+00     2.621823754E+00     2.965488043E+00
     4863    -2.827229408E+00     3.047028601E+00     3.186153825E+00
     4864    -2.394717431E+00     3.002880644E+00     2.954863102E+00
     4865    -2.658431863E+00     2.865108128E+00     1.896855482E+00
     4866    -2.445737914E+00     2.635878564E+00     2.246893926E+00
     4867    -2.856022146E+00     3.078059802E+00     2.368300626E+00
     4868    -2.408228276E+00     3.019822715E+00     2.291238293E+00
     4869    -2.457996620E+00     2.649090315E+00     1.502287628E+00
     4870    -2.666918795E+00     2.874254873E+00     1.157150650E+00
     4871    -2.872243917E+00     3.095542722E+00     1.579729716E+00
     4872    -2.420799212E+00     3.035586180E+00     1.542501166E+00
     4873    -2.222682334E+00     2.395481806E+00     3.669514586E+00
     4874    -2.391065315E+00     2.576955497E+00     3.987102261E+00
     4875    -2.141906080E+00     2.685865229E+00     3.734113395E+00
     4876    -2.168141721E+00     2.336701008E+00     3.300287636E+00
     4877    -2.124735771E+00     2.289920513E+00     3.953971663E+00
     4878    -1.966531976E+00     2.119417376E+00     3.592117591E+00
     4879    -1.916364267E+00     2.403044742E+00     3.616816504E+00
     4880    -2.234668184E+00     2.408399492E+00     2.593091555E+00
     4881    -2.032951766E+00     2.191000892E+00     2.921887081E+00
     4882    -2.033080843E+00     2.549402706E+00     2.992736097E+00
     4883    -2.245303589E+00     2.419861740E+00     1.834248953E+00
     4884    -2.038238617E+00     2.196698771E+00     2.177272028E+00
     4885    -2.042443217E+00     2.561142760E+00     2.216212396E+00
     4886    -2.251022603E+00     2.426025380E+00     1.095059591E+00
     4887    -2.043428292E+00     2.202291919E+00     1.448503784E+00
     4888    -2.051670917E+00     2.572713938E+00     1.471556589E+00
     4889    -2.459944778E+00     2.651189938E+00     7.499226127E-01
     4890    -2.043957896E+00     2.202862704E+00     7.177760113E-01
     4891    -2.250437597E+00     2.425394901E+00     3.606331542E-01
     4892    -2.052498307E+00     2.573751462E+00     7.217294808E-01
     4893    -2.873474338E+00     3.096868809E+00     8.031650282E-01
     4894    -2.665309868E+00     2.872520871E+00     3.890810912E-01
     4895    -2.423205433E+00     3.038603494E+00     7.814165872E-01
     4896    -3.078799461E+00     3.318156658E+00     1.225744095E+00
     4897    -3.283464484E+00     3.538733098E+00     8.336538724E-01
     4898    -3.076954989E+00     3.316168800E+00     4.137740263E-01
     4899    -2.788124493E+00     3.496197521E+00     8.338681742E-01
     4900    -3.069834582E+00     3.308494807E+00     2.032500089E+00
     4901    -3.283651722E+00     3.538934884E+00     1.651309076E+00
     4902    -2.788576818E+00     3.496764709E+00     1.632747255E+00
     4903    -3.038601594E+00     3.274833642E+00     2.936752542E+00
     4904    -3.274498869E+00     3.529070445E+00     2.485770357E+00
     4905    -2.772297447E+00     3.476351014E+00     2.466521172E+00
     4906    -2.883927882E+00     3.108135018E+00     3.685007880E+00
     4907    -3.108970943E+00     3.350673753E+00     3.895087320E+00
     4908    -3.255589821E+00     3.508691329E+00     3.388750301E+00
     4909    -2.739495762E+00     3.435218992E+00     3.436868728E+00
     4910    -2.595373024E+00     2.797146838E+00     4.100463731E+00
     4911    -2.811137427E+00     3.029685558E+00     4.275477219E+00
     4912    -2.494902917E+00     3.128509258E+00     3.965588655E+00
     4913    -2.303170494E+00     2.482227405E+00     4.264967575E+00
     4914    -2.505542738E+00     2.700332810E+00     4.521948564E+00
     4915    -2.223695244E+00     2.788425590E+00     4.252972120E+00
     4916    -2.198196052E+00     2.369091859E+00     4.655041316E+00
     4917    -1.995369828E+00     2.150497182E+00     4.289899415E+00
     4918    -1.969993461E+00     2.470293616E+00     4.297550761E+00
     4919    -1.836363789E+00     1.979129470E+00     3.571428571E-01
     4920    -2.042843490E+00     2.201661668E+00    -2.168404345E-16
     4921    -1.683328411E+00     2.110827062E+00    -5.421010862E-17
     4922    -1.836363793E+00     1.979129467E+00     1.071428571E+00
     4923    -1.683328415E+00     2.110827059E+00     7.142857143E-01
     4924    -2.455802896E+00     2.646726059E+00    -2.168404345E-16
     4925    -2.050514441E+00     2.571263780E+00    -1.626303259E-16
     4926    -2.051387729E+00     2.210870112E+00     5.000000000E+00
     4927    -1.836363812E+00     1.979129449E+00     4.642857143E+00
     4928    -1.683328439E+00     2.110827040E+00     5.000000000E+00
     4929    -2.419129575E+00     2.607201566E+00     4.899850128E+00
     4930    -2.077537763E+00     2.605149898E+00     5.000000000E+00
     4931    -1.836363808E+00     1.979129452E+00     3.928571429E+00
     4932    -1.683328435E+00     2.110827043E+00     4.285714286E+00
     4933    -2.724565440E+00     2.936383142E+00     4.699550383E+00
     4934    -2.346314202E+00     2.942184894E+00     4.807716762E+00
     4935    -1.836363805E+00     1.979129456E+00     3.214285714E+00
     4936    -1.683328431E+00     2.110827046E+00     3.571428571E+00
     4937    -3.335437169E+00     3.594746294E+00     4.298950893E+00
     4938    -3.488318882E+00     3.759513600E+00     3.778918615E+00
     4939    -3.152643055E+00     3.953289301E+00     4.230865380E+00
     4940    -3.030001305E+00     3.265564718E+00     4.499250638E+00
     4941    -2.883867080E+00     3.616254886E+00     4.423150286E+00
     4942    -2.615090641E+00     3.279219890E+00     4.615433524E+00
     4943    -3.488322875E+00     3.759517913E+00     2.939158923E+00
     4944    -3.152658708E+00     3.953308939E+00     3.384692304E+00
     4945    -1.836363801E+00     1.979129459E+00     2.500000000E+00
     4946    -1.683328427E+00     2.110827050E+00     2.857142857E+00
     4947    -3.488322893E+00     3.759517941E+00     2.099399230E+00
     4948    -3.152656168E+00     3.953305764E+00     2.538519228E+00
     4949    -1.836363797E+00     1.979129463E+00     1.785714286E+00
     4950    -1.683328423E+00     2.110827053E+00     2.142857143E+00
     4951    -1.683328419E+00     2.110827056E+00     1.428571429E+00
     4952    -3.488320061E+00     3.759514907E+00     4.198798461E-01
     4953    -3.281721707E+00     3.536854841E+00    -3.252606517E-16
     4954    -3.152072531E+00     3.952573935E+00    -4.502675359E-11
     4955    -3.488322910E+00     3.759517969E+00     1.259639538E+00
     4956    -3.152653629E+00     3.953302589E+00     1.692346152E+00
     4957    -3.152651089E+00     3.953299414E+00     8.461730760E-01
     4958    -2.868762301E+00     3.091790450E+00    -2.168404345E-16
     4959    -2.417700471E+00     3.031700499E+00    -1.084202172E-16
     4960    -2.784886501E+00     3.492137217E+00    -1.626303259E-16
     4961    -2.034765984E+00     2.984453518E+00     3.465125773E+00
     4962    -2.130177942E+00     3.124397160E+00     3.245947954E+00
     4963    -2.021225038E+00     2.964592595E+00     3.628601896E+00
     4964    -2.177770267E+00     3.194202274E+00     3.746132327E+00
     4965    -1.872402093E+00     3.243095511E+00     3.520612363E+00
     4966    -1.943204308E+00     2.850157203E+00     3.575353102E+00
     4967    -1.893977050E+00     2.777954082E+00     3.204112083E+00
     4968    -1.734710902E+00     3.004607373E+00     3.413522244E+00
     4969    -2.158031874E+00     3.165251382E+00     2.620858366E+00
     4970    -1.991468666E+00     2.920948022E+00     2.979341187E+00
     4971    -2.302974920E+00     3.377843778E+00     3.210638996E+00
     4972    -1.906743957E+00     3.302577372E+00     2.963674826E+00
     4973    -2.169604457E+00     3.182225252E+00     1.907014203E+00
     4974    -2.001759667E+00     2.936042156E+00     2.257766252E+00
     4975    -2.325530704E+00     3.410927047E+00     2.387117423E+00
     4976    -1.917319895E+00     3.320895443E+00     2.298411098E+00
     4977    -2.011433672E+00     2.950231326E+00     1.509833413E+00
     4978    -2.176307804E+00     3.192057266E+00     1.164803030E+00
     4979    -2.338331797E+00     3.429702811E+00     1.592489890E+00
     4980    -1.927163022E+00     3.337944248E+00     1.547495362E+00
     4981    -1.828869079E+00     2.682458222E+00     3.678984462E+00
     4982    -1.963111293E+00     2.879355382E+00     4.000699732E+00
     4983    -1.710730323E+00     2.963071789E+00     3.740308967E+00
     4984    -1.784723299E+00     2.617708259E+00     3.308437085E+00
     4985    -1.752078311E+00     2.569826848E+00     3.960013991E+00
     4986    -1.624654908E+00     2.382931045E+00     3.595308421E+00
     4987    -1.533275582E+00     2.655711162E+00     3.619964914E+00
     4988    -1.835196461E+00     2.691738800E+00     2.600474638E+00
     4989    -1.676044021E+00     2.458305039E+00     2.926745023E+00
     4990    -1.623709793E+00     2.812347818E+00     2.997528365E+00
     4991    -1.843589177E+00     2.704048663E+00     1.839302434E+00
     4992    -1.680186350E+00     2.464380729E+00     2.180873221E+00
     4993    -1.631011759E+00     2.824995204E+00     2.219764889E+00
     4994    -1.848108239E+00     2.710676918E+00     1.097579671E+00
     4995    -1.684281854E+00     2.470387738E+00     1.450986910E+00
     4996    -1.638238298E+00     2.837511948E+00     1.474006136E+00
     4997    -2.012982370E+00     2.952502858E+00     7.525492880E-01
     4998    -1.684705491E+00     2.471009110E+00     7.177760113E-01
     4999    -1.847652349E+00     2.710008258E+00     3.606331542E-01
     5000    -1.638995217E+00     2.838822981E+00     7.217659342E-01
     5001    -2.339314464E+00     3.431144129E+00     8.108390057E-01
     5002    -2.175049699E+00     3.190211975E+00     3.916708132E-01
     5003    -1.929157411E+00     3.341398642E+00     7.839712881E-01
     5004    -2.501338457E+00     3.668789674E+00     1.238525866E+00
     5005    -2.662847157E+00     3.905679433E+00     8.437866745E-01
     5006    -2.499888928E+00     3.666663616E+00     4.188033202E-01
     5007    -2.214787315E+00     3.836124146E+00     8.388294563E-01
     5008    -2.494258134E+00     3.658404738E+00     2.050606439E+00
     5009    -2.662989294E+00     3.905887901E+00     1.669193963E+00
     5010    -2.215028520E+00     3.836541915E+00     1.640321296E+00
     5011    -2.469611293E+00     3.622254450E+00     2.962993869E+00
     5012    -2.655766741E+00     3.895294351E+00     2.512428035E+00
     5013    -2.202284804E+00     3.814469140E+00     2.477714876E+00
     5014    -2.350567245E+00     3.447648891E+00     3.710823369E+00
     5015    -2.528995761E+00     3.709355455E+00     3.926443873E+00
     5016    -2.641439282E+00     3.874279817E+00     3.423811742E+00
     5017    -2.177143167E+00     3.770922535E+00     3.451318469E+00
     5018    -2.125834023E+00     3.118025790E+00     4.119073416E+00
     5019    -2.296749615E+00     3.368712919E+00     4.299403398E+00
     5020    -1.987338362E+00     3.442170962E+00     3.976607384E+00
     5021    -1.896121685E+00     2.781099669E+00     4.273968544E+00
     5022    -2.058219222E+00     3.018853087E+00     4.535310422E+00
     5023    -1.775541740E+00     3.075328448E+00     4.259862097E+00
     5024    -1.815274340E+00     2.662518389E+00     4.659218033E+00
     5025    -1.649084831E+00     2.418763153E+00     4.292657620E+00
     5026    -1.576761366E+00     2.731030740E+00     4.300272297E+00
     5027    -1.520879181E+00     2.230720050E+00     3.571428571E-01
     5028    -1.683826038E+00     2.469719198E+00    -2.710505431E-16
     5029    -1.349924574E+00     2.338137949E+00    -2.168404345E-16
     5030    -1.520879185E+00     2.230720047E+00     1.071428571E+00
     5031    -1.349924578E+00     2.338137947E+00     7.142857143E-01
     5032    -2.009719757E+00     2.947717492E+00    -2.710505431E-16
     5033    -1.637443431E+00     2.836135217E+00    -2.710505431E-16
     5034    -1.698962329E+00     2.491919997E+00     5.000000000E+00
     5035    -1.520879206E+00     2.230720033E+00     4.642857143E+00
     5036    -1.349924603E+00     2.338137933E+00     5.000000000E+00
     5037    -1.995470440E+00     2.926817522E+00     4.906229177E+00
     5038    -1.666055936E+00     2.885693463E+00     5.000000000E+00
     5039    -1.520879202E+00     2.230720036E+00     3.928571429E+00
     5040    -1.349924599E+00     2.338137935E+00     4.285714286E+00
     5041    -2.232320420E+00     3.274212641E+00     4.718687531E+00
     5042    -1.874542303E+00     3.246802446E+00     4.814011007E+00
     5043    -1.520879197E+00     2.230720039E+00     3.214285714E+00
     5044    -1.349924595E+00     2.338137937E+00     3.571428571E+00
     5045    -2.706020380E+00     3.969002879E+00     4.343604239E+00
     5046    -2.824498035E+00     4.142777688E+00     3.824850189E+00
     5047    -2.500000024E+00     4.330127005E+00     4.256037845E+00
     5048    -2.469170400E+00     3.621607760E+00     4.531145885E+00
     5049    -2.291515036E+00     3.969020411E+00     4.442033021E+00
     5050    -2.083028670E+00     3.607911428E+00     4.628022014E+00
     5051    -2.824498176E+00     4.142777906E+00     2.974883480E+00
     5052    -2.500000019E+00     4.330127008E+00     3.404830276E+00
     5053    -1.520879193E+00     2.230720042E+00     2.500000000E+00
     5054    -1.349924591E+00     2.338137940E+00     2.857142857E+00
     5055    -2.824498171E+00     4.142777909E+00     2.124916772E+00
     5056    -2.500000015E+00     4.330127011E+00     2.553622707E+00
     5057    -1.520879189E+00     2.230720044E+00     1.785714286E+00
     5058    -1.349924587E+00     2.338137942E+00     2.142857143E+00
     5059    -1.349924582E+00     2.338137944E+00     1.428571429E+00
     5060    -2.824498039E+00     4.142777736E+00     4.249833543E-01
     5061    -2.661507194E+00     3.903714080E+00    -2.710505431E-16
     5062    -2.500000000E+00     4.330127019E+00     0.000000000E+00
     5063    -2.824498166E+00     4.142777912E+00     1.274950063E+00
     5064    -2.500000010E+00     4.330127013E+00     1.702415138E+00
     5065    -2.500000005E+00     4.330127016E+00     8.512075689E-01
     5066    -2.335613476E+00     3.425715786E+00    -2.710505431E-16
     5067    -1.924962287E+00     3.334132484E+00    -3.252606517E-16
     5068    -2.212481144E+00     3.832129751E+00    -3.252606517E-16
     5069    -1.567252554E+00     3.254433412E+00     3.465072950E+00
     5070    -1.640726542E+00     3.407003724E+00     3.245884949E+00
     5071    -1.556832653E+00     3.232796262E+00     3.628550668E+00
     5072    -1.677410962E+00     3.483179700E+00     3.746064931E+00
     5073    -1.376679843E+00     3.507722976E+00     3.511523858E+00
     5074    -1.496737816E+00     3.108008049E+00     3.575309938E+00
     5075    -1.458801560E+00     3.029232605E+00     3.204073626E+00
     5076    -1.273683593E+00     3.245292812E+00     3.406840663E+00
     5077    -1.662172618E+00     3.451536969E+00     2.620808832E+00
     5078    -1.533881209E+00     3.185137108E+00     2.979295337E+00
     5079    -1.773813230E+00     3.683361079E+00     3.210557959E+00
     5080    -1.403213539E+00     3.575329741E+00     2.954851578E+00
     5081    -1.671086114E+00     3.470046044E+00     1.906980581E+00
     5082    -1.541807601E+00     3.201596441E+00     2.257730268E+00
     5083    -1.791184677E+00     3.719433272E+00     2.387055145E+00
     5084    -1.411130922E+00     3.595502912E+00     2.291228913E+00
     5085    -1.549259674E+00     3.217070841E+00     1.509808438E+00
     5086    -1.676266620E+00     3.480803487E+00     1.164777703E+00
     5087    -1.801044671E+00     3.739907773E+00     1.592447658E+00
     5088    -1.418499777E+00     3.614278462E+00     1.542494635E+00
     5089    -1.408672943E+00     2.925139454E+00     3.678953134E+00
     5090    -1.512083066E+00     3.139872782E+00     4.000654748E+00
     5091    -1.255081700E+00     3.197895956E+00     3.734104635E+00
     5092    -1.374659998E+00     2.854510852E+00     3.308410122E+00
     5093    -1.349515669E+00     2.802298105E+00     3.959994001E+00
     5094    -1.251361678E+00     2.598479247E+00     3.595297865E+00
     5095    -1.122919350E+00     2.861151782E+00     3.616812053E+00
     5096    -1.413516187E+00     2.935196569E+00     2.600450202E+00
     5097    -1.290933031E+00     2.680650018E+00     2.926728945E+00
     5098    -1.191307719E+00     3.035402516E+00     2.992729821E+00
     5099    -1.419980472E+00     2.948619807E+00     1.839285708E+00
     5100    -1.294123271E+00     2.687274630E+00     2.180861302E+00
     5101    -1.196794026E+00     3.049381411E+00     2.216207750E+00
     5102    -1.423478536E+00     2.955883622E+00     1.097571330E+00
     5103    -1.297278237E+00     2.693825996E+00     1.450978692E+00
     5104    -1.202204069E+00     3.063165986E+00     1.471553386E+00
     5105    -1.550485482E+00     3.219616268E+00     7.525405945E-01
     5106    -1.297621134E+00     2.694538039E+00     7.177760113E-01
     5107    -1.423144152E+00     2.955189276E+00     3.606331542E-01
     5108    -1.202773768E+00     3.064617570E+00     7.217294331E-01
     5109    -1.801835562E+00     3.741550086E+00     8.108136073E-01
     5110    -1.675331218E+00     3.478861116E+00     3.916622421E-01
     5111    -1.419995922E+00     3.618090591E+00     7.814132461E-01
     5112    -1.926613613E+00     4.000654372E+00     1.238483562E+00
     5113    -2.051011624E+00     4.258969510E+00     8.437531381E-01
     5114    -1.925515137E+00     3.998373375E+00     4.187866748E-01
     5115    -1.633825046E+00     4.162918312E+00     8.338616857E-01
     5116    -1.921143022E+00     3.989294562E+00     2.050546512E+00
     5117    -2.051104242E+00     4.259161820E+00     1.669134770E+00
     5118    -1.634002469E+00     4.163370364E+00     1.632737349E+00
     5119    -1.902159395E+00     3.949874641E+00     2.962907018E+00
     5120    -2.045541267E+00     4.247610172E+00     2.512339807E+00
     5121    -1.624462248E+00     4.139062264E+00     2.466506533E+00
     5122    -1.810497650E+00     3.759537056E+00     3.710737940E+00
     5123    -1.947936153E+00     4.044931043E+00     3.926340109E+00
     5124    -2.034511646E+00     4.224706915E+00     3.423695703E+00
     5125    -1.605242460E+00     4.090091027E+00     3.436849642E+00
     5126    -1.637430906E+00     3.400160253E+00     4.119011849E+00
     5127    -1.769080910E+00     3.673534300E+00     4.299324238E+00
     5128    -1.461925848E+00     3.724926248E+00     3.965573478E+00
     5129    -1.460471138E+00     3.032699505E+00     4.273938766E+00
     5130    -1.585336906E+00     3.291985940E+00     4.535266217E+00
     5131    -1.303007807E+00     3.320009677E+00     4.252962378E+00
     5132    -1.398184889E+00     2.903360771E+00     4.659204215E+00
     5133    -1.270176848E+00     2.637549340E+00     4.292648495E+00
     5134    -1.154343500E+00     2.941219201E+00     4.297546913E+00
     5135    -1.171420646E+00     2.432480030E+00     3.571428571E-01
     5136    -1.296943663E+00     2.693131267E+00    -2.168404345E-16
     5137    -9.863656536E-01     2.513218698E+00    -2.168404345E-16
     5138    -1.171420650E+00     2.432480028E+00     1.071428571E+00
     5139    -9.863656575E-01     2.513218696E+00     7.142857143E-01
     5140    -1.547989703E+00     3.214433739E+00    -2.710505431E-16
     5141    -1.201612093E+00     3.061657681E+00    -2.168404345E-16
     5142    -1.308584917E+00     2.717304507E+00     5.000000000E+00
     5143    -1.171420670E+00     2.432480018E+00     4.642857143E+00
     5144    -9.863656812E-01     2.513218687E+00     5.000000000E+00
     5145    -1.536983693E+00     3.191579453E+00     4.906208073E+00
     5146    -1.217357171E+00     3.101775405E+00     5.000000000E+00
     5147    -1.171420666E+00     2.432480020E+00     3.928571429E+00
     5148    -9.863656773E-01     2.513218688E+00     4.285714286E+00
     5149    -1.719452755E+00     3.570480368E+00     4.718624220E+00
     5150    -1.374857108E+00     3.503078701E+00     4.807707863E+00
     5151    -1.171420662E+00     2.432480022E+00     3.214285714E+00
     5152    -9.863656733E-01     2.513218690E+00     3.571428571E+00
     5153    -2.084390879E+00     4.328282197E+00     4.343456514E+00
     5154    -2.175502208E+00     4.517476827E+00     3.824698170E+00
     5155    -1.847357080E+00     4.706989007E+00     4.230832460E+00
     5156    -1.901921817E+00     3.949381282E+00     4.531040367E+00
     5157    -1.689856980E+00     4.305685292E+00     4.423123588E+00
     5158    -1.532357044E+00     3.904381996E+00     4.615415725E+00
     5159    -2.175501860E+00     4.517476117E+00     2.974765243E+00
     5160    -1.847338773E+00     4.706942373E+00     3.384665968E+00
     5161    -1.171420658E+00     2.432480024E+00     2.500000000E+00
     5162    -9.863656694E-01     2.513218692E+00     2.857142857E+00
     5163    -2.175501855E+00     4.517476120E+00     2.124832317E+00
     5164    -1.847338743E+00     4.706942312E+00     2.538499476E+00
     5165    -1.171420654E+00     2.432480026E+00     1.785714286E+00
     5166    -9.863656654E-01     2.513218693E+00     2.142857143E+00
     5167    -9.863656615E-01     2.513218695E+00     1.428571429E+00
     5168    -2.175502131E+00     4.517476718E+00     4.249664633E-01
     5169    -2.050081781E+00     4.257038684E+00    -3.252606517E-16
     5170    -1.847351411E+00     4.706974629E+00    -1.406806529E-12
     5171    -2.175501850E+00     4.517476122E+00     1.274899390E+00
     5172    -1.847338714E+00     4.706942251E+00     1.692332984E+00
     5173    -1.847338684E+00     4.706942189E+00     8.461664919E-01
     5174    -1.799035742E+00     3.735736212E+00    -2.710505431E-16
     5175    -1.416858532E+00     3.610096663E+00    -2.168404345E-16
     5176    -1.632104971E+00     4.158535646E+00    -3.252606517E-16
     5177    -1.076737626E+00     3.490697583E+00     3.449075885E+00
     5178    -1.129961229E+00     3.663244270E+00     3.226806200E+00
     5179    -1.068760873E+00     3.464837582E+00     3.613035427E+00
     5180    -1.154560898E+00     3.742994430E+00     3.725653771E+00
     5181    -8.547787599E-01     3.745030360E+00     3.482992689E+00
     5182    -1.025981882E+00     3.326151500E+00     3.562236568E+00
     5183    -1.000069949E+00     3.242147083E+00     3.192427529E+00
     5184    -7.875074686E-01     3.450295578E+00     3.385866084E+00
     5185    -1.145689238E+00     3.714233235E+00     2.605810029E+00
     5186    -1.054220535E+00     3.417698975E+00     2.965412061E+00
     5187    -1.225196255E+00     3.971988643E+00     3.186019575E+00
     5188    -8.736381848E-01     3.827658913E+00     2.927149385E+00
     5189    -1.152044202E+00     3.734835536E+00     1.896799764E+00
     5190    -1.059871771E+00     3.436019849E+00     2.246834293E+00
     5191    -1.237671828E+00     4.012433473E+00     2.368197419E+00
     5192    -8.788202588E-01     3.850363078E+00     2.268679133E+00
     5193    -1.065184814E+00     3.453244323E+00     1.502246241E+00
     5194    -1.155737585E+00     3.746809202E+00     1.157108678E+00
     5195    -1.244701584E+00     4.035223396E+00     1.579659729E+00
     5196    -8.836443166E-01     3.871498674E+00     1.526793942E+00
     5197    -9.632407099E-01     3.122749615E+00     3.669463538E+00
     5198    -1.036224753E+00     3.359358064E+00     3.987028964E+00
     5199    -7.741564642E-01     3.391800998E+00     3.714631494E+00
     5200    -9.395938543E-01     3.046088399E+00     3.300243516E+00
     5201    -9.207830245E-01     2.985105174E+00     3.953939092E+00
     5202    -8.522147118E-01     2.762812171E+00     3.592100391E+00
     5203    -6.888814247E-01     3.018186641E+00     3.606916368E+00
     5204    -9.684029940E-01     3.139485349E+00     2.593051060E+00
     5205    -8.809878923E-01     2.856092543E+00     2.921860444E+00
     5206    -7.348905405E-01     3.219765763E+00     2.977664009E+00
     5207    -9.730118031E-01     3.154426755E+00     1.834221235E+00
     5208    -8.832786206E-01     2.863518916E+00     2.177252277E+00
     5209    -7.385173668E-01     3.235655945E+00     2.205039463E+00
     5210    -9.755056446E-01     3.162511605E+00     1.095045769E+00
     5211    -8.855279980E-01     2.870811232E+00     1.448490165E+00
     5212    -7.420598671E-01     3.251176671E+00     1.463852531E+00
     5213    -1.066058415E+00     3.456076484E+00     7.499082059E-01
     5214    -8.857722884E-01     2.871603216E+00     7.177760113E-01
     5215    -9.752670476E-01     3.161738107E+00     3.606331542E-01
     5216    -7.424813312E-01     3.253023243E+00     7.216148312E-01
     5217    -1.245265088E+00     4.037050247E+00     8.031229379E-01
     5218    -1.155070287E+00     3.744645892E+00     3.890668870E-01
     5219    -8.846729687E-01     3.876005511E+00     7.733818073E-01
     5220    -1.334229087E+00     4.325464441E+00     1.225673989E+00
     5221    -1.422921783E+00     4.612999106E+00     8.335982958E-01
     5222    -1.333445549E+00     4.322924286E+00     4.137464415E-01
     5223    -1.024642695E+00     4.489252950E+00     8.182644654E-01
     5224    -1.330328963E+00     4.312820533E+00     2.032400778E+00
     5225    -1.422988162E+00     4.613214284E+00     1.651210981E+00
     5226    -1.024708774E+00     4.489542441E+00     1.608926167E+00
     5227    -1.316794338E+00     4.268942338E+00     2.936608613E+00
     5228    -1.419022155E+00     4.600356791E+00     2.485624145E+00
     5229    -1.018465049E+00     4.462186874E+00     2.431315897E+00
     5230    -1.249795925E+00     4.051738804E+00     3.684867147E+00
     5231    -1.347328757E+00     4.367932475E+00     3.894916434E+00
     5232    -1.410834239E+00     4.573812202E+00     3.388558165E+00
     5233    -1.005165123E+00     4.403916071E+00     3.391423983E+00
     5234    -1.124778410E+00     3.646441968E+00     4.100363369E+00
     5235    -1.218288321E+00     3.949593651E+00     4.275347882E+00
     5236    -9.091373624E-01     3.983190949E+00     3.930938090E+00
     5237    -9.981188598E-01     3.235821788E+00     4.264919055E+00
     5238    -1.085833096E+00     3.520184354E+00     4.521876537E+00
     5239    -8.044359969E-01     3.524464287E+00     4.231306670E+00
     5240    -9.526106441E-01     3.088287769E+00     4.655018801E+00
     5241    -8.647101547E-01     2.803321388E+00     4.289884547E+00
     5242    -7.073518263E-01     3.099110742E+00     4.288992923E+00
     5243    -7.957945086E-01     2.579902426E+00     3.571428571E-01
     5244    -8.852892678E-01     2.870037316E+00    -2.168404345E-16
     5245    -6.007729541E-01     2.632158294E+00    -1.626303259E-16
     5246    -7.957945124E-01     2.579902424E+00     1.071428571E+00
     5247    -6.007729577E-01     2.632158293E+00     7.142857143E-01
     5248    -1.064278790E+00     3.450307095E+00    -3.252606517E-16
     5249    -7.417213692E-01     3.249693649E+00    -2.710505431E-16
     5250    -8.889758797E-01     2.881988923E+00     5.000000000E+00
     5251    -7.957945315E-01     2.579902418E+00     4.642857143E+00
     5252    -6.007729797E-01     2.632158288E+00     5.000000000E+00
     5253    -1.048360785E+00     3.398702098E+00     4.899815741E+00
     5254    -7.414646587E-01     3.248568809E+00     5.000000000E+00
     5255    -7.957945277E-01     2.579902420E+00     3.928571429E+00
     5256    -6.007729760E-01     2.632158289E+00     4.285714286E+00
     5257    -1.180767904E+00     3.827955438E+00     4.699447224E+00
     5258    -8.472636698E-01     3.712104568E+00     4.787924586E+00
     5259    -7.957945239E-01     2.579902421E+00     3.214285714E+00
     5260    -6.007729724E-01     2.632158289E+00     3.571428571E+00
     5261    -1.445582141E+00     4.686462117E+00     4.298710189E+00
     5262    -1.511679580E+00     4.900744761E+00     3.778666688E+00
     5263    -1.164660427E+00     5.102710637E+00     4.151695563E+00
     5264    -1.313175023E+00     4.257208777E+00     4.499078706E+00
     5265    -1.058861692E+00     4.639176087E+00     4.363773759E+00
     5266    -9.530626809E-01     4.175640328E+00     4.575849173E+00
     5267    -1.511677020E+00     4.900736478E+00     2.938962980E+00
     5268    -1.164359562E+00     5.101392481E+00     3.321356450E+00
     5269    -7.957945201E-01     2.579902422E+00     2.500000000E+00
     5270    -6.007729687E-01     2.632158290E+00     2.857142857E+00
     5271    -1.511677000E+00     4.900736429E+00     2.099259271E+00
     5272    -1.164357928E+00     5.101385343E+00     2.491017338E+00
     5273    -7.957945162E-01     2.579902423E+00     1.785714286E+00
     5274    -6.007729651E-01     2.632158291E+00     2.142857143E+00
     5275    -6.007729614E-01     2.632158292E+00     1.428571429E+00
     5276    -1.511678745E+00     4.900742117E+00     4.198518543E-01
     5277    -1.422257835E+00     4.610846653E+00    -3.252606517E-16
     5278    -1.164566614E+00     5.102299715E+00    -1.788868532E-11
     5279    -1.511676980E+00     4.900736381E+00     1.259555563E+00
     5280    -1.164356295E+00     5.101378205E+00     1.660678225E+00
     5281    -1.164354661E+00     5.101371067E+00     8.303391126E-01
     5282    -1.243268312E+00     4.030576874E+00    -3.794707604E-16
     5283    -8.826697842E-01     3.867229004E+00    -2.168404345E-16
     5284    -1.023618199E+00     4.484764360E+00    -3.252606517E-16
     5285    -5.573498244E-01     3.697774362E+00     3.415169360E+00
     5286    -5.878068158E-01     3.899843304E+00     3.186370717E+00
     5287    -5.523551156E-01     3.664636628E+00     3.580148629E+00
     5288    -5.999036946E-01     3.980100835E+00     3.682390418E+00
     5289    -2.968949528E-01     3.961787608E+00     3.431858406E+00
     5290    -5.286302785E-01     3.507232621E+00     3.534525100E+00
     5291    -5.153757528E-01     3.419294600E+00     3.167743885E+00
     5292    -2.715577506E-01     3.623686147E+00     3.348274699E+00
     5293    -5.970001807E-01     3.960837314E+00     2.574022473E+00
     5294    -5.461262869E-01     3.623311071E+00     2.935988686E+00
     5295    -6.411297928E-01     4.253618143E+00     3.134014179E+00
     5296    -3.048811348E-01     4.068355834E+00     2.877502078E+00
     5297    -6.005343258E-01     3.984284858E+00     1.875223156E+00
     5298    -5.492691826E-01     3.644162845E+00     2.223742025E+00
     5299    -6.481601249E-01     4.300261375E+00     2.328231498E+00
     5300    -3.068389211E-01     4.094480717E+00     2.228265877E+00
     5301    -5.522240501E-01     3.663767134E+00     1.486219378E+00
     5302    -6.025902612E-01     3.997925123E+00     1.140855410E+00
     5303    -6.520695052E-01     4.326198444E+00     1.552557767E+00
     5304    -3.086612831E-01     4.118798492E+00     1.498655480E+00
     5305    -4.937820443E-01     3.276029690E+00     3.649347426E+00
     5306    -5.336159790E-01     3.540310568E+00     3.958144930E+00
     5307    -2.658354394E-01     3.547327190E+00     3.679729932E+00
     5308    -4.812449883E-01     3.192851770E+00     3.282932834E+00
     5309    -4.698805769E-01     3.117453805E+00     3.941103853E+00
     5310    -4.331852054E-01     2.873995934E+00     3.585322364E+00
     5311    -2.343212742E-01     3.126799886E+00     3.589180408E+00
     5312    -4.983950458E-01     3.306634990E+00     2.577369768E+00
     5313    -4.497590837E-01     2.983956454E+00     2.911542398E+00
     5314    -2.524250970E-01     3.368378652E+00     2.950663335E+00
     5315    -5.009582109E-01     3.323640504E+00     1.823487898E+00
     5316    -4.510495643E-01     2.992518258E+00     2.169603526E+00
     5317    -2.538160058E-01     3.386939085E+00     2.185023886E+00
     5318    -5.023469683E-01     3.332854332E+00     1.089693249E+00
     5319    -4.523006008E-01     3.000818367E+00     1.443216131E+00
     5320    -2.551544402E-01     3.404799296E+00     1.450051214E+00
     5321    -5.527131795E-01     3.667012320E+00     7.443292810E-01
     5322    -4.524381043E-01     3.001730666E+00     7.177760113E-01
     5323    -5.022159096E-01     3.331984837E+00     3.606331542E-01
     5324    -2.553152664E-01     3.406945417E+00     7.214094440E-01
     5325    -6.523862651E-01     4.328300033E+00     7.868237993E-01
     5326    -6.022224226E-01     3.995484698E+00     3.835664488E-01
     5327    -3.090515984E-01     4.124006933E+00     7.589880259E-01
     5328    -7.018655090E-01     4.656573354E+00     1.198526156E+00
     5329    -7.511950708E-01     4.983853625E+00     8.120767386E-01
     5330    -7.014310543E-01     4.653690962E+00     4.030644766E-01
     5331    -3.619481719E-01     4.829862650E+00     7.903114441E-01
     5332    -6.996948553E-01     4.642171981E+00     1.993943810E+00
     5333    -7.512307748E-01     4.984090479E+00     1.613224389E+00
     5334    -3.619715849E-01     4.830175027E+00     1.566252248E+00
     5335    -6.921677513E-01     4.592232880E+00     2.880873367E+00
     5336    -7.490256763E-01     4.969460580E+00     2.429004590E+00
     5337    -3.596132717E-01     4.798705476E+00     2.368247955E+00
     5338    -6.532266716E-01     4.333875673E+00     3.630033880E+00
     5339    -7.070073108E-01     4.690686893E+00     3.828313540E+00
     5340    -7.441418447E-01     4.937058445E+00     3.314088954E+00
     5341    -3.541733561E-01     4.726114790E+00     3.310012410E+00
     5342    -5.820367787E-01     3.861561580E+00     4.060832418E+00
     5343    -6.336860389E-01     4.204232026E+00     4.224524433E+00
     5344    -3.166068251E-01     4.224824238E+00     3.868862691E+00
     5345    -5.110852750E-01     3.390829105E+00     4.245799006E+00
     5346    -5.585330877E-01     3.705624765E+00     4.493492996E+00
     5347    -2.766597159E-01     3.691767091E+00     4.192493310E+00
     5348    -4.846499494E-01     3.215442166E+00     4.646146530E+00
     5349    -4.391964259E-01     2.913877753E+00     4.284025511E+00
     5350    -2.401213822E-01     3.204196907E+00     4.273661672E+00
     5351    -4.023916372E-01     2.669694064E+00     3.571428571E-01
     5352    -4.521694425E-01     2.999948235E+00    -1.084202172E-16
     5353    -2.017599795E-01     2.692299823E+00    -1.084202172E-16
     5354    -4.023916406E-01     2.669694064E+00     1.071428571E+00
     5355    -2.017599828E-01     2.692299823E+00     7.142857143E-01
     5356    -5.517250565E-01     3.660456577E+00    -2.168404345E-16
     5357    -2.550280783E-01     3.403113202E+00    -2.168404345E-16
     5358    -4.495085899E-01     2.982294468E+00     5.000000000E+00
     5359    -4.023916579E-01     2.669694061E+00     4.642857143E+00
     5360    -2.017600022E-01     2.692299821E+00     5.000000000E+00
     5361    -5.346289777E-01     3.547031344E+00     4.886265230E+00
     5362    -2.490090504E-01     3.322794553E+00     5.000000000E+00
     5363    -4.023916545E-01     2.669694061E+00     3.928571429E+00
     5364    -2.017599989E-01     2.692299821E+00     4.285714286E+00
     5365    -6.106358925E-01     4.051304283E+00     4.658795690E+00
     5366    -2.904804542E-01     3.876191993E+00     4.752467170E+00
     5367    -4.023916510E-01     2.669694062E+00     3.214285714E+00
     5368    -2.017599957E-01     2.692299822E+00     3.571428571E+00
     5369    -7.626497222E-01     5.059850160E+00     4.203856610E+00
     5370    -8.005581035E-01     5.311355854E+00     3.681110357E+00
     5371    -4.148946438E-01     5.536384021E+00     4.009868025E+00
     5372    -6.866428073E-01     4.555577221E+00     4.431326150E+00
     5373    -3.734232619E-01     4.982986873E+00     4.257401511E+00
     5374    -3.319518580E-01     4.429589433E+00     4.504934341E+00
     5375    -8.005520135E-01     5.311315476E+00     2.863085834E+00
     5376    -4.147511382E-01     5.534469121E+00     3.207894420E+00
     5377    -4.023916475E-01     2.669694062E+00     2.500000000E+00
     5378    -2.017599925E-01     2.692299822E+00     2.857142857E+00
     5379    -8.005518704E-01     5.311314553E+00     2.045061310E+00
     5380    -4.147487909E-01     5.534437846E+00     2.405920815E+00
     5381    -4.023916441E-01     2.669694063E+00     1.785714286E+00
     5382    -2.017599892E-01     2.692299822E+00     2.142857143E+00
     5383    -2.017599860E-01     2.692299822E+00     1.428571429E+00
     5384    -8.005552687E-01     5.311337153E+00     4.090122619E-01
     5385    -7.508362846E-01     4.981473261E+00    -3.794707604E-16
     5386    -4.148323744E-01     5.535553338E+00    -1.407354051E-11
     5387    -8.005517273E-01     5.311313631E+00     1.227036786E+00
     5388    -4.147464435E-01     5.534406572E+00     1.603947210E+00
     5389    -4.147440962E-01     5.534375298E+00     8.019736050E-01
     5390    -6.512806706E-01     4.320964919E+00    -2.168404345E-16
     5391    -3.082961770E-01     4.113926580E+00    -2.710505431E-16
     5392    -3.615642757E-01     4.824739959E+00    -2.710505431E-16
     5393    -1.402853951E-08     3.882757334E+00     3.359149931E+00
     5394    -1.302797175E-08     4.126592841E+00     3.119562642E+00
     5395    -1.472456822E-08     3.838501814E+00     3.525814872E+00
     5396    -1.507995491E-08     4.203784915E+00     3.610912460E+00
     5397     2.968350717E-01     3.960988934E+00     3.432525690E+00
     5398    -1.456974383E-08     3.656059635E+00     3.488742077E+00
     5399    -1.305887091E-08     3.565562771E+00     3.126961768E+00
     5400     2.715078985E-01     3.623021291E+00     3.348765327E+00
     5401    -1.053034184E-08     4.202118626E+00     2.521502093E+00
     5402    -1.205830314E-08     3.809398278E+00     2.887374479E+00
     5403    -1.272948491E-08     4.541829778E+00     3.048089397E+00
     5404     3.048555555E-01     4.068014824E+00     2.878149517E+00
     5405    -7.682461252E-09     4.229404295E+00     1.839573618E+00
     5406    -9.127492342E-09     3.833662254E+00     2.185588266E+00
     5407    -9.447435135E-09     4.597044975E+00     2.262198569E+00
     5408     3.068143305E-01     4.094152827E+00     2.228792897E+00
     5409    -6.096190288E-09     3.856472178E+00     1.459739300E+00
     5410    -4.652314355E-09     4.245222583E+00     1.114001260E+00
     5411    -6.296816371E-09     4.627227411E+00     1.507779069E+00
     5412     3.086371760E-01     4.118476973E+00     1.499022427E+00
     5413    -1.510167432E-08     3.387541140E+00     3.616113614E+00
     5414    -1.633078556E-08     3.687282464E+00     3.910425640E+00
     5415     2.657590265E-01     3.546307942E+00     3.680185839E+00
     5416    -1.359080140E-08     3.297044276E+00     3.254333305E+00
     5417    -1.637034635E-08     3.200206634E+00     3.919898764E+00
     5418    -1.492631729E-08     2.931563657E+00     3.574124391E+00
     5419     2.342824291E-01     3.126281935E+00     3.589412087E+00
     5420    -1.065545365E-08     3.440941907E+00     2.551460652E+00
     5421    -1.208803685E-08     3.065329768E+00     2.894494628E+00
     5422     2.524112838E-01     3.368194656E+00     2.951015455E+00
     5423    -7.541221378E-09     3.460730137E+00     1.805753948E+00
     5424    -9.007958074E-09     3.075461288E+00     2.156966024E+00
     5425     2.538038153E-01     3.386776660E+00     2.185284904E+00
     5426    -4.513864432E-09     3.471398313E+00     1.080849649E+00
     5427    -5.990793115E-09     3.085117999E+00     1.434502210E+00
     5428     2.551416996E-01     3.404629447E+00     1.450231194E+00
     5429    -3.069988499E-09     3.860148718E+00     7.351116090E-01
     5430    -2.997589662E-09     3.086129463E+00     7.177760113E-01
     5431    -1.506084741E-09     3.470336156E+00     3.606331542E-01
     5432     2.552651085E-01     3.406276186E+00     7.214121224E-01
     5433    -3.173486157E-09     4.629570174E+00     7.598938594E-01
     5434    -1.563907339E-09     4.242281789E+00     3.744784549E-01
     5435     3.089894490E-01     4.123177691E+00     7.591757320E-01
     5436    -4.817988173E-09     5.011575002E+00     1.153671669E+00
     5437    -3.242914430E-09     5.392377691E+00     7.765181573E-01
     5438    -1.609584023E-09     5.008170998E+00     3.854154045E-01
     5439     3.618749483E-01     4.828885637E+00     7.906759732E-01
     5440    -8.061790253E-09     4.994868092E+00     1.930404020E+00
     5441    -6.475070169E-09     5.392700003E+00     1.550461770E+00
     5442     3.619368409E-01     4.829711576E+00     1.566808749E+00
     5443    -1.164657821E-08     4.936756127E+00     2.788785873E+00
     5444    -9.753375699E-09     5.375670780E+00     2.335456014E+00
     5445     3.595759988E-01     4.798208368E+00     2.369070410E+00
     5446    -1.478146807E-08     4.619021852E+00     3.539439215E+00
     5447    -1.552831930E-08     5.029414180E+00     3.718273440E+00
     5448    -1.332651731E-08     5.334588039E+00     3.191049129E+00
     5449     3.541172522E-01     4.725366506E+00     3.311074299E+00
     5450    -1.668617225E-08     4.052565564E+00     3.995523228E+00
     5451    -1.729186954E-08     4.447588785E+00     4.140557979E+00
     5452     3.165074862E-01     4.223499085E+00     3.869673093E+00
     5453    -1.759945759E-08     3.499947957E+00     4.214210790E+00
     5454    -1.856996827E-08     3.852610173E+00     4.446600572E+00
     5455     2.765747378E-01     3.690633606E+00     4.193000315E+00
     5456    -1.934209967E-08     3.284623459E+00     4.631488659E+00
     5457    -1.785059326E-08     2.968492126E+00     4.274345801E+00
     5458     2.400877941E-01     3.203749183E+00     4.273861939E+00
     5459    -1.491506878E-09     2.699849149E+00     3.571428571E-01
     5460    -1.956425041E-15     3.084055842E+00    -1.626303259E-16
     5461     2.017599795E-01     2.692299823E+00    -1.626303259E-16
     5462    -4.474518344E-09     2.699849149E+00     1.071428571E+00
     5463     2.017599768E-01     2.692299823E+00     7.142857143E-01
     5464    -3.580666946E-15     3.852469227E+00    -2.168404345E-16
     5465     2.549776353E-01     3.402440087E+00    -2.168404345E-16
     5466    -2.088108208E-08     3.015980482E+00     5.000000000E+00
     5467    -1.938957568E-08     2.699849149E+00     4.642857143E+00
     5468     2.017599605E-01     2.692299824E+00     5.000000000E+00
     5469    -2.031261035E-08     3.637285674E+00     4.863878441E+00
     5470     2.490090087E-01     3.322794556E+00     5.000000000E+00
     5471    -1.640656421E-08     2.699849149E+00     3.928571429E+00
     5472     2.017599632E-01     2.692299824E+00     4.285714286E+00
     5473    -1.917566556E-08     4.247633394E+00     4.591635323E+00
     5474     2.904028159E-01     3.875156513E+00     4.752930338E+00
     5475    -1.342355274E-08     2.699849149E+00     3.214285714E+00
     5476     2.017599660E-01     2.692299824E+00     3.571428571E+00
     5477    -1.690177598E-08     5.468328832E+00     4.047149087E+00
     5478    -1.469997399E-08     5.773502695E+00     3.519924775E+00
     5479     4.145841114E-01     5.532240702E+00     4.011717566E+00
     5480    -1.803872077E-08     4.857981113E+00     4.319392205E+00
     5481     3.731904304E-01     4.979880429E+00     4.258791015E+00
     5482     3.317966232E-01     4.427518471E+00     4.505860676E+00
     5483    -1.143331480E-08     5.773502697E+00     2.737719270E+00
     5484     4.146967529E-01     5.533743758E+00     3.209374053E+00
     5485    -1.044054128E-08     2.699849149E+00     2.500000000E+00
     5486     2.017599687E-01     2.692299824E+00     2.857142857E+00
     5487    -8.166655614E-09     5.773502695E+00     1.955513764E+00
     5488     4.146985057E-01     5.533767107E+00     2.407030540E+00
     5489    -7.457529811E-09     2.699849149E+00     1.785714286E+00
     5490     2.017599714E-01     2.692299823E+00     2.142857143E+00
     5491     2.017599741E-01     2.692299823E+00     1.428571429E+00
     5492    -1.633337236E-09     5.773502693E+00     3.911027528E-01
     5493    -6.829150756E-15     5.389295999E+00    -3.252606517E-16
     5494     4.146306025E-01     5.532860878E+00    -9.556591629E-12
     5495    -4.899996425E-09     5.773502694E+00     1.173308258E+00
     5496     4.147002586E-01     5.533790456E+00     1.604687027E+00
     5497     4.147020114E-01     5.533813805E+00     8.023435132E-01
     5498    -5.204908851E-15     4.620882613E+00    -2.710505431E-16
     5499     3.081952910E-01     4.112580350E+00    -2.710505431E-16
     5500     3.614129467E-01     4.822720614E+00    -2.710505431E-16
     5501     5.573179097E-01     3.697562812E+00     3.415339749E+00
     5502     5.877855698E-01     3.899702524E+00     3.186574245E+00
     5503     5.523150735E-01     3.664371167E+00     3.580313716E+00
     5504     5.998573188E-01     3.979793358E+00     3.682607717E+00
     5505     8.546831639E-01     3.744611658E+00     3.483404383E+00
     5506     5.285931269E-01     3.506986334E+00     3.534664140E+00
     5507     5.153572937E-01     3.419172310E+00     3.167868020E+00
     5508     7.874249073E-01     3.449933980E+00     3.386168725E+00
     5509     5.969817262E-01     3.960715021E+00     2.574182577E+00
     5510     5.461145014E-01     3.623233044E+00     2.936136882E+00
     5511     6.411098010E-01     4.253485681E+00     3.134276086E+00
     5512     8.736160833E-01     3.827562190E+00     2.927549209E+00
     5513     6.005121797E-01     3.984138034E+00     1.875331830E+00
     5514     5.492549719E-01     3.644068688E+00     2.223858333E+00
     5515     6.481367711E-01     4.300106563E+00     2.328432794E+00
     5516     8.787987451E-01     3.850268905E+00     2.269004592E+00
     5517     5.522047038E-01     3.663638863E+00     1.486300100E+00
     5518     6.025180073E-01     3.997445813E+00     1.140937273E+00
     5519     6.520408276E-01     4.326008267E+00     1.552694271E+00
     5520     8.836215054E-01     3.871398789E+00     1.527020549E+00
     5521     4.937483329E-01     3.275806233E+00     3.649448226E+00
     5522     5.335675844E-01     3.539989713E+00     3.958289665E+00
     5523     7.740163019E-01     3.391187046E+00     3.714912391E+00
     5524     4.812216395E-01     3.192697044E+00     3.283019687E+00
     5525     4.698590537E-01     3.117311229E+00     3.941168169E+00
     5526     4.331738270E-01     2.873920645E+00     3.585356328E+00
     5527     6.888101843E-01     3.017874652E+00     3.607059112E+00
     5528     4.983859311E-01     3.306574662E+00     2.577448749E+00
     5529     4.497551250E-01     2.983930353E+00     2.911594362E+00
     5530     7.348776109E-01     3.219709226E+00     2.977881450E+00
     5531     5.009471869E-01     3.323567467E+00     1.823541959E+00
     5532     4.510448443E-01     2.992487064E+00     2.169642050E+00
     5533     7.385067006E-01     3.235609297E+00     2.205200654E+00
     5534     5.022860475E-01     3.332450209E+00     1.089720208E+00
     5535     4.522935688E-01     3.000771793E+00     1.443242695E+00
     5536     7.420468284E-01     3.251119600E+00     1.463963676E+00
     5537     5.525993509E-01     3.666257159E+00     7.443573802E-01
     5538     4.523835007E-01     3.001368435E+00     7.177760113E-01
     5539     5.021070043E-01     3.331262318E+00     3.606331542E-01
     5540     7.423799322E-01     3.252579012E+00     7.216164852E-01
     5541     6.522601021E-01     4.327463041E+00     7.869058928E-01
     5542     6.020538796E-01     3.994366510E+00     3.835941527E-01
     5543     8.845603937E-01     3.875512317E+00     7.734977244E-01
     5544     7.017829224E-01     4.656025495E+00     1.198662891E+00
     5545     7.511042973E-01     4.983251427E+00     8.121851357E-01
     5546     7.012936055E-01     4.652779071E+00     4.031182783E-01
     5547     1.024520688E+00     4.488718434E+00     8.184895788E-01
     5548     6.996635287E-01     4.641964255E+00     1.994137506E+00
     5549     7.511917995E-01     4.983831985E+00     1.613415715E+00
     5550     1.024677852E+00     4.489407022E+00     1.609269831E+00
     5551     6.921428992E-01     4.592068159E+00     2.881154088E+00
     5552     7.489928233E-01     4.969242750E+00     2.429289765E+00
     5553     1.018432506E+00     4.462044386E+00     2.431823800E+00
     5554     6.531815501E-01     4.333576515E+00     3.630309558E+00
     5555     7.069508903E-01     4.690312783E+00     3.828648359E+00
     5556     7.441102041E-01     4.936848709E+00     3.314463933E+00
     5557     1.005095614E+00     4.403611656E+00     3.392079562E+00
     5558     5.819719238E-01     3.861131524E+00     4.061030530E+00
     5559     6.336116704E-01     4.203738861E+00     4.224779315E+00
     5560     9.089651371E-01     3.982436528E+00     3.931437795E+00
     5561     5.110532264E-01     3.390616714E+00     4.245894815E+00
     5562     5.584855267E-01     3.705309470E+00     4.493635223E+00
     5563     8.042801243E-01     3.523781523E+00     4.231619050E+00
     5564     4.846350558E-01     3.215343614E+00     4.646190988E+00
     5565     4.391865804E-01     2.913812673E+00     4.284054870E+00
     5566     7.072902354E-01     3.098841055E+00     4.289116313E+00
     5567     4.023916342E-01     2.669694064E+00     3.571428571E-01
     5568     4.521151379E-01     2.999587948E+00    -1.626303259E-16
     5569     6.007729541E-01     2.632158294E+00    -1.084202172E-16
     5570     4.023916318E-01     2.669694065E+00     1.071428571E+00
     5571     6.007729519E-01     2.632158294E+00     7.142857143E-01
     5572     5.515621427E-01     3.659375715E+00    -2.710505431E-16
     5573     7.416191966E-01     3.249246002E+00    -2.168404345E-16
     5574     4.495085486E-01     2.982294474E+00     5.000000000E+00
     5575     4.023916196E-01     2.669694067E+00     4.642857143E+00
     5576     6.007729390E-01     2.632158297E+00     5.000000000E+00
     5577     5.346062491E-01     3.546880824E+00     4.886333130E+00
     5578     7.414646180E-01     3.248568818E+00     5.000000000E+00
     5579     4.023916220E-01     2.669694066E+00     3.928571429E+00
     5580     6.007729411E-01     2.632158297E+00     4.285714286E+00
     5581     6.105677893E-01     4.050852709E+00     4.658999390E+00
     5582     8.471212670E-01     3.711480841E+00     4.788209956E+00
     5583     4.023916245E-01     2.669694066E+00     3.214285714E+00
     5584     6.007729433E-01     2.632158296E+00     3.571428571E+00
     5585     7.624908698E-01     5.058796479E+00     4.204331911E+00
     5586     8.005439077E-01     5.311261877E+00     3.681601717E+00
     5587     1.164091007E+00     5.100216000E+00     4.152837739E+00
     5588     6.865293296E-01     4.554824594E+00     4.431665650E+00
     5589     1.058434565E+00     4.637304885E+00     4.364629869E+00
     5590     9.527779160E-01     4.174392863E+00     4.576419913E+00
     5591     8.005474081E-01     5.311285082E+00     2.863468002E+00
     5592     1.164312860E+00     5.101187992E+00     3.322270191E+00
     5593     4.023916269E-01     2.669694066E+00     2.500000000E+00
     5594     6.007729454E-01     2.632158296E+00     2.857142857E+00
     5595     8.005463695E-01     5.311278172E+00     2.045334287E+00
     5596     1.164314025E+00     5.101193085E+00     2.491702643E+00
     5597     4.023916293E-01     2.669694065E+00     1.785714286E+00
     5598     6.007729476E-01     2.632158295E+00     2.142857143E+00
     5599     6.007729498E-01     2.632158295E+00     1.428571429E+00
     5600     8.005228536E-01     5.311122116E+00     4.090668574E-01
     5601     7.504561524E-01     4.978951248E+00    -3.252606517E-16
     5602     1.164157924E+00     5.100509126E+00    -7.901990694E-12
     5603     8.005453309E-01     5.311271262E+00     1.227200572E+00
     5604     1.164315190E+00     5.101198177E+00     1.661135096E+00
     5605     1.164316355E+00     5.101203269E+00     8.305675478E-01
     5606     6.510091476E-01     4.319163481E+00    -2.710505431E-16
     5607     8.824654391E-01     3.866333710E+00    -2.168404345E-16
     5608     1.023311682E+00     4.483421418E+00    -2.168404345E-16
     5609     1.076710576E+00     3.490609988E+00     3.449162773E+00
     5610     1.129949129E+00     3.663205135E+00     3.226910389E+00
     5611     1.068723742E+00     3.464717308E+00     3.613119393E+00
     5612     1.154519604E+00     3.742860663E+00     3.725764444E+00
     5613     1.376674996E+00     3.507710706E+00     3.511536118E+00
     5614     1.025946505E+00     3.326036913E+00     3.562307205E+00
     5615     1.000055983E+00     3.242101898E+00     3.192490945E+00
     5616     1.273679386E+00     3.245282171E+00     3.406849741E+00
     5617     1.145685342E+00     3.714220680E+00     2.605892116E+00
     5618     1.054217506E+00     3.417689242E+00     2.965488043E+00
     5619     1.225189484E+00     3.971966783E+00     3.186153826E+00
     5620     1.403212220E+00     3.575326446E+00     2.954863103E+00
     5621     1.152040500E+00     3.734823589E+00     1.896855483E+00
     5622     1.059868850E+00     3.436010443E+00     2.246893926E+00
     5623     1.237666920E+00     4.012417628E+00     2.368300627E+00
     5624     1.411129058E+00     3.595498218E+00     2.291238294E+00
     5625     1.065181206E+00     3.453232670E+00     1.502287629E+00
     5626     1.155718344E+00     3.746746860E+00     1.157150650E+00
     5627     1.244696684E+00     4.035207556E+00     1.579729716E+00
     5628     1.418495148E+00     3.614266702E+00     1.542501166E+00
     5629     9.632069473E-01     3.122640263E+00     3.669514586E+00
     5630     1.036176285E+00     3.359201047E+00     3.987102262E+00
     5631     1.255074495E+00     3.197877685E+00     3.734113396E+00
     5632     9.395715884E-01     3.046016308E+00     3.300287636E+00
     5633     9.207614692E-01     2.985035405E+00     3.953971663E+00
     5634     8.522033169E-01     2.762775331E+00     3.592117591E+00
     5635     1.122915675E+00     2.861142503E+00     3.616816504E+00
     5636     9.684010617E-01     3.139479158E+00     2.593091555E+00
     5637     8.809865626E-01     2.856088315E+00     2.921887081E+00
     5638     1.191307099E+00     3.035401005E+00     2.992736098E+00
     5639     9.730099545E-01     3.154420814E+00     1.834248953E+00
     5640     8.832776416E-01     2.863515804E+00     2.177272029E+00
     5641     1.196793094E+00     3.049379087E+00     2.216212396E+00
     5642     9.754883125E-01     3.162455447E+00     1.095059592E+00
     5643     8.855266084E-01     2.870806769E+00     1.448503784E+00
     5644     1.202200175E+00     3.063156100E+00     1.471556590E+00
     5645     1.066025451E+00     3.455969637E+00     7.499226128E-01
     5646     8.857561178E-01     2.871550813E+00     7.177760113E-01
     5647     9.752348018E-01     3.161633579E+00     3.606331542E-01
     5648     1.202684999E+00     3.064391405E+00     7.217294808E-01
     5649     1.245229895E+00     4.036936177E+00     8.031650285E-01
     5650     1.155021115E+00     3.744486490E+00     3.890810913E-01
     5651     1.419905105E+00     3.617859209E+00     7.814165873E-01
     5652     1.334208235E+00     4.325396872E+00     1.225744095E+00
     5653     1.422900522E+00     4.612930203E+00     8.336538728E-01
     5654     1.333408931E+00     4.322805586E+00     4.137740265E-01
     5655     1.633733627E+00     4.162685399E+00     8.338681744E-01
     5656     1.330323269E+00     4.312802132E+00     2.032500089E+00
     5657     1.422981658E+00     4.613193246E+00     1.651309077E+00
     5658     1.633998667E+00     4.163360715E+00     1.632747255E+00
     5659     1.316788343E+00     4.268922987E+00     2.936752543E+00
     5660     1.419015233E+00     4.600334422E+00     2.485770358E+00
     5661     1.624459578E+00     4.139055518E+00     2.466521172E+00
     5662     1.249759959E+00     4.051622311E+00     3.685007881E+00
     5663     1.347283135E+00     4.367784685E+00     3.895087321E+00
     5664     1.410820929E+00     4.573769146E+00     3.388750302E+00
     5665     1.605239048E+00     4.090082412E+00     3.436868729E+00
     5666     1.124713726E+00     3.646232383E+00     4.100463732E+00
     5667     1.218215964E+00     3.949359196E+00     4.275477220E+00
     5668     1.461917052E+00     3.724903927E+00     3.965588656E+00
     5669     9.980867628E-01     3.235717853E+00     4.264967575E+00
     5670     1.085785463E+00     3.520030058E+00     4.521948565E+00
     5671     1.302999794E+00     3.319989358E+00     4.252972120E+00
     5672     9.525957287E-01     3.088239546E+00     4.655041316E+00
     5673     8.647002952E-01     2.803289546E+00     4.289899415E+00
     5674     1.154340315E+00     2.941211183E+00     4.297550761E+00
     5675     7.957945057E-01     2.579902426E+00     3.571428571E-01
     5676     8.852731897E-01     2.869985192E+00    -1.626303259E-16
     5677     9.863656536E-01     2.513218698E+00    -2.710505431E-16
     5678     7.957945039E-01     2.579902427E+00     1.071428571E+00
     5679     9.863656520E-01     2.513218698E+00     7.142857143E-01
     5680     1.064230556E+00     3.450150724E+00    -2.168404345E-16
     5681     1.201522533E+00     3.061429487E+00    -2.710505431E-16
     5682     8.889758397E-01     2.881988935E+00     5.000000000E+00
     5683     7.957944945E-01     2.579902430E+00     4.642857143E+00
     5684     9.863656423E-01     2.513218702E+00     5.000000000E+00
     5685     1.048338023E+00     3.398628443E+00     4.899850128E+00
     5686     1.217357132E+00     3.101775420E+00     5.000000000E+00
     5687     7.957944963E-01     2.579902429E+00     3.928571429E+00
     5688     9.863656440E-01     2.513218702E+00     4.285714286E+00
     5689     1.180699697E+00     3.827734448E+00     4.699550384E+00
     5690     1.374849781E+00     3.503060142E+00     4.807716762E+00
     5691     7.957944982E-01     2.579902429E+00     3.214285714E+00
     5692     9.863656456E-01     2.513218701E+00     3.571428571E+00
     5693     1.445423044E+00     4.685946459E+00     4.298950895E+00
     5694     1.511674858E+00     4.900729559E+00     3.778918617E+00
     5695     1.847327453E+00     4.706913615E+00     4.230865382E+00
     5696     1.313061370E+00     4.256840453E+00     4.499250639E+00
     5697     1.689835077E+00     4.305629585E+00     4.423150287E+00
     5698     1.532342429E+00     3.904344864E+00     4.615433525E+00
     5699     1.511676593E+00     4.900735176E+00     2.939158924E+00
     5700     1.847336631E+00     4.706936992E+00     3.384692305E+00
     5701     7.957945001E-01     2.579902428E+00     2.500000000E+00
     5702     9.863656472E-01     2.513218700E+00     2.857142857E+00
     5703     1.511676605E+00     4.900735207E+00     2.099399231E+00
     5704     1.847335147E+00     4.706933207E+00     2.538519229E+00
     5705     7.957945020E-01     2.579902428E+00     1.785714286E+00
     5706     9.863656488E-01     2.513218700E+00     2.142857143E+00
     5707     9.863656504E-01     2.513218699E+00     1.428571429E+00
     5708     1.511675387E+00     4.900731242E+00     4.198798463E-01
     5709     1.422145288E+00     4.610481787E+00    -2.710505431E-16
     5710     1.846993173E+00     4.706061854E+00    -1.513546233E-11
     5711     1.511676617E+00     4.900735238E+00     1.259639539E+00
     5712     1.847333664E+00     4.706929422E+00     1.692346153E+00
     5713     1.847332180E+00     4.706925637E+00     8.461730763E-01
     5714     1.243187922E+00     4.030316255E+00    -2.710505431E-16
     5715     1.416679413E+00     3.609640276E+00    -2.710505431E-16
     5716     1.631836293E+00     4.157851065E+00    -3.252606517E-16
     5717     1.567229585E+00     3.254385784E+00     3.465125773E+00
     5718     1.640718355E+00     3.406986786E+00     3.245947955E+00
     5719     1.556799996E+00     3.232728519E+00     3.628601896E+00
     5720     1.677375196E+00     3.483105503E+00     3.746132327E+00
     5721     1.872402068E+00     3.243095526E+00     3.520612363E+00
     5722     1.496706404E+00     3.107942889E+00     3.575353102E+00
     5723     1.458790294E+00     3.029209274E+00     3.204112084E+00
     5724     1.734710877E+00     3.004607387E+00     3.413522244E+00
     5725     1.662172180E+00     3.451536110E+00     2.620858366E+00
     5726     1.533880870E+00     3.185136461E+00     2.979341187E+00
     5727     1.773811075E+00     3.683356667E+00     3.210638996E+00
     5728     1.906743936E+00     3.302577385E+00     2.963674826E+00
     5729     1.671085689E+00     3.470045198E+00     1.907014203E+00
     5730     1.541807270E+00     3.201595797E+00     2.257766252E+00
     5731     1.791184131E+00     3.719432185E+00     2.387117423E+00
     5732     1.917319879E+00     3.320895452E+00     2.298411098E+00
     5733     1.549258445E+00     3.217068318E+00     1.509833413E+00
     5734     1.676248785E+00     3.480766475E+00     1.164803030E+00
     5735     1.801043870E+00     3.739906140E+00     1.592489890E+00
     5736     1.927163011E+00     3.337944254E+00     1.547495362E+00
     5737     1.408642441E+00     2.925076186E+00     3.678984463E+00
     5738     1.512039278E+00     3.139781933E+00     4.000699732E+00
     5739     1.710730296E+00     2.963071804E+00     3.740308967E+00
     5740     1.374640217E+00     2.854469838E+00     3.308437085E+00
     5741     1.349496195E+00     2.802257743E+00     3.960013991E+00
     5742     1.251351382E+00     2.598457937E+00     3.595308421E+00
     5743     1.533275556E+00     2.655711177E+00     3.619964914E+00
     5744     1.413515961E+00     2.935196151E+00     2.600474638E+00
     5745     1.290932616E+00     2.680649214E+00     2.926745023E+00
     5746     1.623709771E+00     2.812347831E+00     2.997528365E+00
     5747     1.419980254E+00     2.948619389E+00     1.839302434E+00
     5748     1.294123150E+00     2.687274422E+00     2.180873221E+00
     5749     1.631011743E+00     2.824995214E+00     2.219764889E+00
     5750     1.423460957E+00     2.955847140E+00     1.097579671E+00
     5751     1.297277618E+00     2.693824738E+00     1.450986910E+00
     5752     1.638238288E+00     2.837511954E+00     1.474006136E+00
     5753     1.550451297E+00     3.219545297E+00     7.525492880E-01
     5754     1.297603920E+00     2.694502307E+00     7.177760113E-01
     5755     1.423109823E+00     2.955118000E+00     3.606331542E-01
     5756     1.638995212E+00     2.838822984E+00     7.217659342E-01
     5757     1.801800751E+00     3.741477816E+00     8.108390058E-01
     5758     1.675279766E+00     3.478754281E+00     3.916708133E-01
     5759     1.929157406E+00     3.341398645E+00     7.839712881E-01
     5760     1.926595836E+00     4.000617481E+00     1.238525866E+00
     5761     2.050994033E+00     4.258932999E+00     8.437866746E-01
     5762     1.925479376E+00     3.998299125E+00     4.188033202E-01
     5763     2.214787308E+00     3.836124149E+00     8.388294563E-01
     5764     1.921142382E+00     3.989293272E+00     2.050606439E+00
     5765     2.051103506E+00     4.259160325E+00     1.669193963E+00
     5766     2.215028508E+00     3.836541922E+00     1.640321296E+00
     5767     1.902158739E+00     3.949873335E+00     2.962993869E+00
     5768     2.045540503E+00     4.247608634E+00     2.512428035E+00
     5769     2.202284786E+00     3.814469151E+00     2.477714876E+00
     5770     1.810467917E+00     3.759475384E+00     3.710823369E+00
     5771     1.947898192E+00     4.044852293E+00     3.926443873E+00
     5772     2.034505116E+00     4.224693422E+00     3.423811743E+00
     5773     2.177143142E+00     3.770922549E+00     3.451318469E+00
     5774     1.637372550E+00     3.400039154E+00     4.119073416E+00
     5775     1.769016177E+00     3.673399962E+00     4.299403398E+00
     5776     1.987338333E+00     3.442170979E+00     3.976607384E+00
     5777     1.460442140E+00     3.032639373E+00     4.273968544E+00
     5778     1.585293872E+00     3.291896667E+00     4.535310422E+00
     5779     1.775541709E+00     3.075328466E+00     4.259862097E+00
     5780     1.398171413E+00     2.903332877E+00     4.659218033E+00
     5781     1.270167939E+00     2.637530924E+00     4.292657620E+00
     5782     1.576761334E+00     2.731030758E+00     4.300272297E+00
     5783     1.171420643E+00     2.432480031E+00     3.571428571E-01
     5784     1.296926547E+00     2.693095724E+00    -1.626303259E-16
     5785     1.349924574E+00     2.338137949E+00    -1.626303259E-16
     5786     1.171420642E+00     2.432480032E+00     1.071428571E+00
     5787     1.349924573E+00     2.338137950E+00     7.142857143E-01
     5788     1.547938353E+00     3.214327110E+00    -2.168404345E-16
     5789     1.637443431E+00     2.836135217E+00    -1.626303259E-16
     5790     1.308584879E+00     2.717304525E+00     5.000000000E+00
     5791     1.171420635E+00     2.432480035E+00     4.642857143E+00
     5792     1.349924567E+00     2.338137953E+00     5.000000000E+00
     5793     1.536963128E+00     3.191536844E+00     4.906229177E+00
     5794     1.666055900E+00     2.885693484E+00     5.000000000E+00
     5795     1.171420636E+00     2.432480034E+00     3.928571429E+00
     5796     1.349924568E+00     2.338137953E+00     4.285714286E+00
     5797     1.719391135E+00     3.570352503E+00     4.718687531E+00
     5798     1.874542268E+00     3.246802466E+00     4.814011007E+00
     5799     1.171420638E+00     2.432480034E+00     3.214285714E+00
     5800     1.349924569E+00     2.338137952E+00     3.571428571E+00
     5801     2.084247149E+00     4.327983821E+00     4.343604240E+00
     5802     2.175501719E+00     4.517475886E+00     3.824850189E+00
     5803     2.499999993E+00     4.330127023E+00     4.256037845E+00
     5804     1.901819142E+00     3.949168162E+00     4.531145885E+00
     5805     2.291515004E+00     3.969020429E+00     4.442033021E+00
     5806     2.083028636E+00     3.607911448E+00     4.628022014E+00
     5807     2.175501833E+00     4.517476120E+00     2.974883481E+00
     5808     2.499999995E+00     4.330127022E+00     3.404830276E+00
     5809     1.171420639E+00     2.432480033E+00     2.500000000E+00
     5810     1.349924570E+00     2.338137952E+00     2.857142857E+00
     5811     2.175501835E+00     4.517476119E+00     2.124916772E+00
     5812     2.499999996E+00     4.330127021E+00     2.553622707E+00
     5813     1.171420640E+00     2.432480033E+00     1.785714286E+00
     5814     1.349924571E+00     2.338137951E+00     2.142857143E+00
     5815     1.349924572E+00     2.338137950E+00     1.428571429E+00
     5816     2.175501744E+00     4.517475921E+00     4.249833544E-01
     5817     2.049961965E+00     4.256789883E+00    -2.710505431E-16
     5818     2.500000000E+00     4.330127019E+00    -5.421010862E-17
     5819     2.175501837E+00     4.517476118E+00     1.274950063E+00
     5820     2.499999997E+00     4.330127020E+00     1.702415138E+00
     5821     2.499999999E+00     4.330127020E+00     8.512075689E-01
     5822     1.798950159E+00     3.735558496E+00    -2.168404345E-16
     5823     1.924962287E+00     3.334132484E+00    -2.168404345E-16
     5824     2.212481144E+00     3.832129751E+00    -2.168404345E-16
     5825     2.034795747E+00     2.984497222E+00     3.465072950E+00
     5826     2.130188518E+00     3.124412719E+00     3.245884949E+00
     5827     2.021267376E+00     2.964654748E+00     3.628550668E+00
     5828     2.177816640E+00     3.194270346E+00     3.746064931E+00
     5829     2.349437299E+00     2.946101196E+00     3.511523858E+00
     5830     1.943245032E+00     2.850216987E+00     3.575309938E+00
     5831     1.893991623E+00     2.777975504E+00     3.204073626E+00
     5832     2.173664235E+00     2.725688744E+00     3.406840663E+00
     5833     2.158032399E+00     3.165252191E+00     2.620808832E+00
     5834     1.991469058E+00     2.920948640E+00     2.979295337E+00
     5835     2.302977664E+00     3.377847850E+00     3.210557958E+00
     5836     2.394719624E+00     3.002883434E+00     2.954851578E+00
     5837     2.169604977E+00     3.182226043E+00     1.906980581E+00
     5838     2.001760059E+00     2.936042765E+00     2.257730268E+00
     5839     2.325531373E+00     3.410928063E+00     2.387055145E+00
     5840     2.408231410E+00     3.019826676E+00     2.291228912E+00
     5841     2.011435243E+00     2.950233652E+00     1.509808438E+00
     5842     2.176330940E+00     3.192091217E+00     1.164777703E+00
     5843     2.338332810E+00     3.429704321E+00     1.592447658E+00
     5844     2.420807082E+00     3.035596069E+00     1.542494634E+00
     5845     1.828908620E+00     2.682516272E+00     3.678953134E+00
     5846     1.963168077E+00     2.879438728E+00     4.000654748E+00
     5847     2.141918301E+00     2.685880603E+00     3.734104635E+00
     5848     1.784748927E+00     2.617745897E+00     3.308410122E+00
     5849     1.752103529E+00     2.569863895E+00     3.959994001E+00
     5850     1.624668214E+00     2.382950616E+00     3.595297865E+00
     5851     1.916370466E+00     2.403052564E+00     3.616812053E+00
     5852     1.835196711E+00     2.691739205E+00     2.600450202E+00
     5853     1.676044510E+00     2.458305800E+00     2.926728945E+00
     5854     2.033081842E+00     2.549403998E+00     2.992729820E+00
     5855     1.843589430E+00     2.704049060E+00     1.839285708E+00
     5856     1.680186470E+00     2.464380937E+00     2.180861302E+00
     5857     2.042444763E+00     2.561144729E+00     2.216207749E+00
     5858     1.848131044E+00     2.710710382E+00     1.097571330E+00
     5859     1.684282633E+00     2.470388903E+00     1.450978692E+00
     5860     2.051677531E+00     2.572722253E+00     1.471553386E+00
     5861     2.013026740E+00     2.952567948E+00     7.525405945E-01
     5862     1.684727829E+00     2.471041884E+00     7.177760113E-01
     5863     1.847696912E+00     2.710073626E+00     3.606331542E-01
     5864     2.052649787E+00     2.573941421E+00     7.217294331E-01
     5865     2.339359646E+00     3.431210411E+00     8.108136072E-01
     5866     2.175116495E+00     3.190309952E+00     3.916622420E-01
     5867     2.423360407E+00     3.038797836E+00     7.814132460E-01
     5868     2.501361517E+00     3.668823515E+00     1.238483562E+00
     5869     2.662869981E+00     3.905712923E+00     8.437531380E-01
     5870     2.499935350E+00     3.666731711E+00     4.187866747E-01
     5871     2.788280492E+00     3.496393149E+00     8.338616855E-01
     5872     2.494258931E+00     3.658405937E+00     2.050546512E+00
     5873     2.662990221E+00     3.905889285E+00     1.669134770E+00
     5874     2.788583273E+00     3.496772825E+00     1.632737349E+00
     5875     2.469612096E+00     3.622255672E+00     2.962907018E+00
     5876     2.655767691E+00     3.895295781E+00     2.512339806E+00
     5877     2.772301954E+00     3.476356699E+00     2.466506532E+00
     5878     2.350605787E+00     3.447705477E+00     3.710737940E+00
     5879     2.529044980E+00     3.709427705E+00     3.926340109E+00
     5880     2.641447703E+00     3.874292219E+00     3.423695702E+00
     5881     2.739501517E+00     3.435226254E+00     3.436849642E+00
     5882     2.125909719E+00     3.118136877E+00     4.119011849E+00
     5883     2.296833588E+00     3.368836149E+00     4.299324238E+00
     5884     2.494917850E+00     3.128528037E+00     3.965573478E+00
     5885     1.896159262E+00     2.781154848E+00     4.273938766E+00
     5886     2.058275018E+00     3.018934992E+00     4.535266217E+00
     5887     2.223708834E+00     2.788442688E+00     4.252962377E+00
     5888     1.815291758E+00     2.662544006E+00     4.659204215E+00
     5889     1.649096325E+00     2.418780076E+00     4.292648495E+00
     5890     1.969998812E+00     2.470300384E+00     4.297546913E+00
     5891     1.520879179E+00     2.230720052E+00     3.571428571E-01
     5892     1.683848261E+00     2.469751793E+00    -1.626303259E-16
     5893     1.683328411E+00     2.110827062E+00    -2.168404345E-16
     5894     1.520879178E+00     2.230720052E+00     1.071428571E+00
     5895     1.683328410E+00     2.110827063E+00     7.142857143E-01
     5896     2.009786426E+00     2.947815277E+00    -1.626303259E-16
     5897     2.050667283E+00     2.571455438E+00    -2.168404345E-16
     5898     1.698962294E+00     2.491920021E+00     5.000000000E+00
     5899     1.520879174E+00     2.230720055E+00     4.642857143E+00
     5900     1.683328406E+00     2.110827066E+00     5.000000000E+00
     5901     1.995497058E+00     2.926856637E+00     4.906208073E+00
     5902     2.077537731E+00     2.605149924E+00     5.000000000E+00
     5903     1.520879174E+00     2.230720055E+00     3.928571429E+00
     5904     1.683328407E+00     2.110827065E+00     4.285714286E+00
     5905     2.232400344E+00     3.274329938E+00     4.718624220E+00
     5906     2.346326611E+00     2.942200518E+00     4.807707862E+00
     5907     1.520879175E+00     2.230720054E+00     3.214285714E+00
     5908     1.683328407E+00     2.110827065E+00     3.571428571E+00
     5909     2.706206916E+00     3.969276541E+00     4.343456514E+00
     5910     2.824498606E+00     4.142778582E+00     3.824698169E+00
     5911     3.152693533E+00     3.953352655E+00     4.230832458E+00
     5912     2.469303630E+00     3.621803239E+00     4.531040367E+00
     5913     2.883904372E+00     3.616301708E+00     4.423123587E+00
     5914     2.615115491E+00     3.279251113E+00     4.615415724E+00
     5915     2.824498161E+00     4.142777928E+00     2.974765243E+00
     5916     3.152662297E+00     3.953313485E+00     3.384665967E+00
     5917     1.520879176E+00     2.230720053E+00     2.500000000E+00
     5918     1.683328408E+00     2.110827064E+00     2.857142857E+00
     5919     2.824498162E+00     4.142777927E+00     2.124832316E+00
     5920     3.152662255E+00     3.953313431E+00     2.538499475E+00
     5921     1.520879177E+00     2.230720053E+00     1.785714286E+00
     5922     1.683328409E+00     2.110827064E+00     2.142857143E+00
     5923     1.683328409E+00     2.110827063E+00     1.428571429E+00
     5924     2.824498535E+00     4.142778470E+00     4.249664632E-01
     5925     2.661662754E+00     3.903942244E+00    -2.168404345E-16
     5926     3.152683899E+00     3.953340566E+00    -2.771762854E-13
     5927     2.824498163E+00     4.142777926E+00     1.274899390E+00
     5928     3.152662213E+00     3.953313377E+00     1.692332983E+00
     5929     3.152662171E+00     3.953313323E+00     8.461664916E-01
     5930     2.335724590E+00     3.425878761E+00    -2.168404345E-16
     5931     2.418006155E+00     3.032083814E+00    -2.168404345E-16
     5932     2.785345027E+00     3.492712190E+00    -2.710505431E-16
     5933     2.484663984E+00     2.677830919E+00     3.449075884E+00
     5934     2.607481996E+00     2.810197255E+00     3.226806199E+00
     5935     2.466256943E+00     2.657992847E+00     3.613035426E+00
     5936     2.664247828E+00     2.871376273E+00     3.725653770E+00
     5937     2.815902063E+00     2.612775291E+00     3.482992688E+00
     5938     2.367540768E+00     2.551602113E+00     3.562236568E+00
     5939     2.307746774E+00     2.487159513E+00     3.192427528E+00
     5940     2.594289898E+00     2.407149252E+00     3.385866084E+00
     5941     2.643775728E+00     2.849312595E+00     2.605810028E+00
     5942     2.432703879E+00     2.621831243E+00     2.965412060E+00
     5943     2.827244953E+00     3.047045395E+00     3.186019574E+00
     5944     2.878030774E+00     2.670422310E+00     2.927149384E+00
     5945     2.658440359E+00     2.865117308E+00     1.896799763E+00
     5946     2.445744600E+00     2.635885797E+00     2.246834293E+00
     5947     2.856033414E+00     3.078071975E+00     2.368197419E+00
     5948     2.895102118E+00     2.686262202E+00     2.268679133E+00
     5949     2.458004908E+00     2.649099266E+00     1.502246241E+00
     5950     2.666963165E+00     2.874302706E+00     1.157108677E+00
     5951     2.872255186E+00     3.095554886E+00     1.579659728E+00
     5952     2.910994049E+00     2.701007759E+00     1.526793942E+00
     5953     2.222760154E+00     2.395565721E+00     3.669463538E+00
     5954     2.391177062E+00     2.577075980E+00     3.987028964E+00
     5955     2.550307609E+00     2.366339652E+00     3.714631494E+00
     5956     2.168193020E+00     2.336756336E+00     3.300243515E+00
     5957     2.124785415E+00     2.289974065E+00     3.953939092E+00
     5958     1.966558182E+00     2.119445664E+00     3.592100391E+00
     5959     2.269385604E+00     2.105682123E+00     3.606916368E+00
     5960     2.234672579E+00     2.408404261E+00     2.593051060E+00
     5961     2.032954762E+00     2.191004158E+00     2.921860444E+00
     5962     2.420953685E+00     2.246316749E+00     2.977664008E+00
     5963     2.245307810E+00     2.419866312E+00     1.834221235E+00
     5964     2.038240823E+00     2.196701176E+00     2.177252276E+00
     5965     2.432901571E+00     2.257402767E+00     2.205039462E+00
     5966     2.251062571E+00     2.426068469E+00     1.095045769E+00
     5967     2.043431463E+00     2.202295354E+00     1.448490165E+00
     5968     2.444571661E+00     2.268231027E+00     1.463852530E+00
     5969     2.460020828E+00     2.651271910E+00     7.499082058E-01
     5970     2.043995193E+00     2.202902910E+00     7.177760113E-01
     5971     2.250511998E+00     2.425475091E+00     3.606331542E-01
     5972     2.445960105E+00     2.269519314E+00     7.216148312E-01
     5973     2.873555530E+00     3.096956322E+00     8.031229376E-01
     5974     2.665423329E+00     2.872643157E+00     3.890668869E-01
     5975     2.914382756E+00     2.704152018E+00     7.733818071E-01
     5976     3.078847551E+00     3.318208502E+00     1.225673988E+00
     5977     3.283513525E+00     3.538785963E+00     8.335982954E-01
     5978     3.077039478E+00     3.316259862E+00     4.137464413E-01
     5979     3.375485755E+00     3.131993077E+00     8.182644649E-01
     5980     3.069847670E+00     3.308508939E+00     2.032400778E+00
     5981     3.283666689E+00     3.538951035E+00     1.651210980E+00
     5982     3.375703425E+00     3.132195046E+00     1.608926166E+00
     5983     3.038615355E+00     3.274848510E+00     2.936608612E+00
     5984     3.274514780E+00     3.529087624E+00     2.485624144E+00
     5985     3.355134675E+00     3.113110036E+00     2.431315896E+00
     5986     2.884010785E+00     3.108224412E+00     3.684867146E+00
     5987     3.109076123E+00     3.350787158E+00     3.894916433E+00
     5988     3.255620453E+00     3.508724384E+00     3.388558163E+00
     5989     3.311320645E+00     3.072456558E+00     3.391423981E+00
     5990     2.595522188E+00     2.797307649E+00     4.100363369E+00
     5991     2.811304292E+00     3.029865449E+00     4.275347881E+00
     5992     2.994975883E+00     2.778931514E+00     3.930938089E+00
     5993     2.303244456E+00     2.482307170E+00     4.264919054E+00
     5994     2.505652544E+00     2.700451209E+00     4.521876536E+00
     5995     2.650057623E+00     2.458894139E+00     4.231306669E+00
     5996     2.198230356E+00     2.369128887E+00     4.655018801E+00
     5997     1.995392475E+00     2.150521641E+00     4.289884547E+00
     5998     2.330232732E+00     2.162140008E+00     4.288992923E+00
     5999     1.836363787E+00     1.979129472E+00     3.571428571E-01
     6000     2.042880591E+00     2.201701653E+00    -1.626303259E-16
     6001     1.979129472E+00     1.836363787E+00    -5.421010862E-17
     6002     1.836363786E+00     1.979129473E+00     1.071428571E+00
     6003     1.979129472E+00     1.836363787E+00     7.142857143E-01
     6004     2.455914200E+00     2.646846016E+00    -2.168404345E-16
     6005     2.443456570E+00     2.267196373E+00    -1.626303259E-16
     6006     2.051387698E+00     2.210870141E+00     5.000000000E+00
     6007     1.836363784E+00     1.979129475E+00     4.642857143E+00
     6008     1.979129470E+00     1.836363789E+00     5.000000000E+00
     6009     2.419181981E+00     2.607258106E+00     4.899815741E+00
     6010     2.442610801E+00     2.266411618E+00     5.000000000E+00
     6011     1.836363784E+00     1.979129474E+00     3.928571429E+00
     6012     1.979129470E+00     1.836363789E+00     4.285714286E+00
     6013     2.724722719E+00     2.936552706E+00     4.699447223E+00
     6014     2.791145039E+00     2.589804131E+00     4.787924586E+00
     6015     1.836363785E+00     1.979129474E+00     3.214285714E+00
     6016     1.979129470E+00     1.836363789E+00     3.571428571E+00
     6017     3.335804194E+00     3.595141905E+00     4.298710187E+00
     6018     3.488329686E+00     3.759525291E+00     3.778666687E+00
     6019     3.836746844E+00     3.559980825E+00     4.151695560E+00
     6020     3.030263456E+00     3.265847306E+00     4.499078705E+00
     6021     3.488213515E+00     3.236589156E+00     4.363773757E+00
     6022     3.139679277E+00     2.913196643E+00     4.575849171E+00
     6023     3.488323789E+00     3.759518934E+00     2.938962979E+00
     6024     3.835755716E+00     3.559061192E+00     3.321356448E+00
     6025     1.836363785E+00     1.979129474E+00     2.500000000E+00
     6026     1.979129471E+00     1.836363788E+00     2.857142857E+00
     6027     3.488323754E+00     3.759518894E+00     2.099259270E+00
     6028     3.835750348E+00     3.559056210E+00     2.491017336E+00
     6029     1.836363786E+00     1.979129473E+00     1.785714286E+00
     6030     1.979129471E+00     1.836363788E+00     2.142857143E+00
     6031     1.979129471E+00     1.836363788E+00     1.428571429E+00
     6032     3.488327800E+00     3.759523253E+00     4.198518541E-01
     6033     3.281981418E+00     3.537134742E+00    -2.710505431E-16
     6034     3.836437864E+00     3.559694130E+00    -2.185155269E-12
     6035     3.488323718E+00     3.759518855E+00     1.259555562E+00
     6036     3.835744979E+00     3.559051229E+00     1.660678224E+00
     6037     3.835739611E+00     3.559046247E+00     8.303391121E-01
     6038     2.868947809E+00     3.091990379E+00    -2.168404345E-16
     6039     2.907783668E+00     2.698028959E+00    -1.084202172E-16
     6040     3.372110766E+00     3.128861544E+00    -1.626303259E-16
     6041     2.923691634E+00     2.331566277E+00     3.415169359E+00
     6042     3.083459975E+00     2.458977277E+00     3.186370716E+00
     6043     2.897490870E+00     2.310671865E+00     3.580148628E+00
     6044     3.146916598E+00     2.509582246E+00     3.682390417E+00
     6045     3.282561247E+00     2.238012365E+00     3.431858405E+00
     6046     2.773037419E+00     2.211423549E+00     3.534525099E+00
     6047     2.703508121E+00     2.155975784E+00     3.167743884E+00
     6048     3.002425393E+00     2.047018973E+00     3.348274698E+00
     6049     3.131685653E+00     2.497435972E+00     2.574022472E+00
     6050     2.864816300E+00     2.284614765E+00     2.935988685E+00
     6051     3.363176484E+00     2.682043750E+00     3.134014177E+00
     6052     3.370858946E+00     2.298212716E+00     2.877502076E+00
     6053     3.150224747E+00     2.512220406E+00     1.875223155E+00
     6054     2.881303016E+00     2.297762482E+00     2.223742024E+00
     6055     3.400055540E+00     2.711453815E+00     2.328231497E+00
     6056     3.392504863E+00     2.312970652E+00     2.228265876E+00
     6057     2.896803392E+00     2.310123619E+00     1.486219378E+00
     6058     3.161009592E+00     2.520821032E+00     1.140855410E+00
     6059     3.420563007E+00     2.727807974E+00     1.552557766E+00
     6060     3.412653491E+00     2.326707754E+00     1.498655479E+00
     6061     2.590233924E+00     2.065642627E+00     3.649347426E+00
     6062     2.799190912E+00     2.232280265E+00     3.958144929E+00
     6063     2.939157753E+00     2.003883826E+00     3.679729931E+00
     6064     2.524468259E+00     2.013196259E+00     3.282932833E+00
     6065     2.464853913E+00     1.965655406E+00     3.941103852E+00
     6066     2.272360897E+00     1.812147347E+00     3.585322364E+00
     6067     2.590727506E+00     1.766328107E+00     3.589180408E+00
     6068     2.614432387E+00     2.084940257E+00     2.577369767E+00
     6069     2.359302560E+00     1.881481009E+00     2.911542398E+00
     6070     2.790888942E+00     1.902795863E+00     2.950663334E+00
     6071     2.627878010E+00     2.095662783E+00     1.823487898E+00
     6072     2.366072057E+00     1.886879503E+00     2.169603526E+00
     6073     2.806267292E+00     1.913280644E+00     2.185023885E+00
     6074     2.635163037E+00     2.101472398E+00     1.089693249E+00
     6075     2.372634642E+00     1.892112989E+00     1.443216131E+00
     6076     2.821065470E+00     1.923369871E+00     1.450051214E+00
     6077     2.899369238E+00     2.312169812E+00     7.443292808E-01
     6078     2.373355962E+00     1.892688223E+00     7.177760113E-01
     6079     2.634475560E+00     2.100924153E+00     3.606331542E-01
     6080     2.822843649E+00     1.924582212E+00     7.214094440E-01
     6081     3.422224655E+00     2.729133093E+00     7.868237988E-01
     6082     3.159080039E+00     2.519282264E+00     3.835664486E-01
     6083     3.416968972E+00     2.329649999E+00     7.589880256E-01
     6084     3.681778070E+00     2.936120035E+00     1.198526155E+00
     6085     3.940546316E+00     3.142480825E+00     8.120767379E-01
     6086     3.679499069E+00     2.934302592E+00     4.030644763E-01
     6087     4.001809669E+00     2.728387635E+00     7.903114434E-01
     6088     3.670391445E+00     2.927039505E+00     1.993943809E+00
     6089     3.940733589E+00     3.142630170E+00     1.613224388E+00
     6090     4.002068492E+00     2.728564097E+00     1.566252247E+00
     6091     3.630906470E+00     2.895551289E+00     2.880873366E+00
     6092     3.929166277E+00     3.133405548E+00     2.429004589E+00
     6093     3.975994220E+00     2.710786960E+00     2.368247953E+00
     6094     3.426633107E+00     2.732648718E+00     3.630033878E+00
     6095     3.708750370E+00     2.957629728E+00     3.828313538E+00
     6096     3.903547124E+00     3.112974955E+00     3.314088952E+00
     6097     3.915848804E+00     2.669780510E+00     3.310012408E+00
     6098     3.053192051E+00     2.434839414E+00     4.060832417E+00
     6099     3.324128733E+00     2.650904208E+00     4.224524432E+00
     6100     3.500501716E+00     2.386601661E+00     3.868862689E+00
     6101     2.681001520E+00     2.138027370E+00     4.245799006E+00
     6102     2.929898653E+00     2.336516211E+00     4.493492996E+00
     6103     3.058834240E+00     2.085477874E+00     4.192493309E+00
     6104     2.542329639E+00     2.027440235E+00     4.646146530E+00
     6105     2.303893957E+00     1.837294124E+00     4.284025511E+00
     6106     2.654855240E+00     1.810049656E+00     4.273661672E+00
     6107     2.110827062E+00     1.683328411E+00     3.571428571E-01
     6108     2.371946660E+00     1.891564342E+00    -1.084202172E-16
     6109     2.230720051E+00     1.520879179E+00    -1.626303259E-16
     6110     2.110827062E+00     1.683328411E+00     1.071428571E+00
     6111     2.230720051E+00     1.520879179E+00     7.142857143E-01
     6112     2.894185857E+00     2.308036203E+00    -1.626303259E-16
     6113     2.819668445E+00     1.922417395E+00    -1.084202172E-16
     6114     2.357988490E+00     1.880433075E+00     5.000000000E+00
     6115     2.110827061E+00     1.683328412E+00     4.642857143E+00
     6116     2.230720051E+00     1.520879180E+00     5.000000000E+00
     6117     2.804504778E+00     2.236517932E+00     4.886265230E+00
     6118     2.753119981E+00     1.877045422E+00     5.000000000E+00
     6119     2.110827061E+00     1.683328412E+00     3.928571429E+00
     6120     2.230720051E+00     1.520879180E+00     4.285714286E+00
     6121     3.203214496E+00     2.554478322E+00     4.658795689E+00
     6122     3.211640522E+00     2.189659433E+00     4.752467170E+00
     6123     2.110827061E+00     1.683328412E+00     3.214285714E+00
     6124     2.230720051E+00     1.520879180E+00     3.571428571E+00
     6125     4.000633933E+00     3.190399103E+00     4.203856607E+00
     6126     4.199490062E+00     3.348981573E+00     3.681110355E+00
     6127     4.587201902E+00     3.127501302E+00     4.009868022E+00
     6128     3.601924215E+00     2.872438712E+00     4.431326148E+00
     6129     4.128681603E+00     2.814887456E+00     4.257401509E+00
     6130     3.670161063E+00     2.502273445E+00     4.504934339E+00
     6131     4.199458135E+00     3.348956112E+00     2.863085831E+00
     6132     4.585615299E+00     3.126419575E+00     3.207894417E+00
     6133     2.110827062E+00     1.683328412E+00     2.500000000E+00
     6134     2.230720051E+00     1.520879180E+00     2.857142857E+00
     6135     4.199457404E+00     3.348955529E+00     2.045061308E+00
     6136     4.585589385E+00     3.126401906E+00     2.405920813E+00
     6137     2.110827062E+00     1.683328411E+00     1.785714286E+00
     6138     2.230720051E+00     1.520879179E+00     2.142857143E+00
     6139     2.230720051E+00     1.520879179E+00     1.428571429E+00
     6140     4.199475270E+00     3.348969776E+00     4.090122616E-01
     6141     3.938664250E+00     3.140979927E+00    -2.168404345E-16
     6142     4.586513627E+00     3.127032043E+00    -5.951727826E-13
     6143     4.199456673E+00     3.348954945E+00     1.227036785E+00
     6144     4.585563471E+00     3.126384238E+00     1.603947209E+00
     6145     4.585537557E+00     3.126366570E+00     8.019736043E-01
     6146     3.416425053E+00     2.724508065E+00    -1.626303259E-16
     6147     3.408616839E+00     2.323955611E+00    -1.626303259E-16
     6148     3.997565233E+00     2.725493827E+00    -1.626303259E-16
     6149     3.362566488E+00     1.941378667E+00     3.359149931E+00
     6150     3.087867938E+00     1.782781385E+00     3.126961768E+00
     6151     3.166240522E+00     1.828029818E+00     3.488742077E+00
     6152     3.639141479E+00     2.101059313E+00     2.521502093E+00
     6153     3.573734231E+00     2.063296421E+00     3.119562642E+00
     6154     3.299035682E+00     1.904699139E+00     2.887374479E+00
     6155     3.933339967E+00     2.270914889E+00     3.048089397E+00
     6156     3.320048901E+00     1.916831127E+00     2.185588266E+00
     6157     3.981157731E+00     2.298522487E+00     2.262198569E+00
     6158     3.662771562E+00     2.114702147E+00     1.839573618E+00
     6159     3.640584528E+00     2.101892457E+00     3.610912460E+00
     6160     3.324240084E+00     1.919250907E+00     3.525814872E+00
     6161     2.855324100E+00     1.648522138E+00     3.254333305E+00
     6162     2.771460242E+00     1.600103317E+00     3.919898764E+00
     6163     2.933696684E+00     1.693770570E+00     3.616113614E+00
     6164     2.538808599E+00     1.465781828E+00     3.574124391E+00
     6165     2.979943104E+00     1.720470953E+00     2.551460652E+00
     6166     2.654653450E+00     1.532664884E+00     2.894494628E+00
     6167     2.997080215E+00     1.730365069E+00     1.805753948E+00
     6168     2.663427603E+00     1.537730644E+00     2.156966024E+00
     6169     3.006319126E+00     1.735699156E+00     1.080849649E+00
     6170     3.339802875E+00     1.928236089E+00     1.459739300E+00
     6171     2.671790560E+00     1.542558999E+00     1.434502210E+00
     6172     4.325682656E+00     2.497434046E+00     1.930404020E+00
     6173     4.340151265E+00     2.505787501E+00     1.153671669E+00
     6174     4.007296487E+00     2.313613706E+00     1.507779069E+00
     6175     4.670215198E+00     2.696350002E+00     1.550461770E+00
     6176     4.275356218E+00     2.468378064E+00     2.788785873E+00
     6177     4.655467458E+00     2.687835390E+00     2.335456014E+00
     6178     4.000190264E+00     2.309510926E+00     3.539439215E+00
     6179     4.355600446E+00     2.514707090E+00     3.718273440E+00
     6180     4.619888761E+00     2.667294020E+00     3.191049129E+00
     6181     3.509624729E+00     2.026282782E+00     3.995523228E+00
     6182     3.851724873E+00     2.223794393E+00     4.140557979E+00
     6183     3.031043843E+00     1.749973979E+00     4.214210790E+00
     6184     3.193280285E+00     1.843641232E+00     3.910425640E+00
     6185     3.336458281E+00     1.926305086E+00     4.446600572E+00
     6186     2.570789592E+00     1.484246063E+00     4.274345801E+00
     6187     2.844567357E+00     1.642311729E+00     4.631488659E+00
     6188     3.342986852E+00     1.930074359E+00     7.351116090E-01
     6189     4.009325379E+00     2.314785087E+00     7.598938594E-01
     6190     3.676470601E+00     2.122611291E+00     1.114001260E+00
     6191     3.673923799E+00     2.121140895E+00     3.744784549E-01
     6192     2.672666514E+00     1.543064731E+00     7.177760113E-01
     6193     3.005399271E+00     1.735168078E+00     3.606331542E-01
     6194     4.669936067E+00     2.696188845E+00     7.765181573E-01
     6195     4.337203311E+00     2.504085499E+00     3.854154045E-01
     6196     2.338137949E+00     1.349924574E+00     3.928571429E+00
     6197     2.338137949E+00     1.349924574E+00     4.642857143E+00
     6198     2.338137949E+00     1.349924574E+00     3.214285714E+00
     6199     2.338137949E+00     1.349924574E+00     2.500000000E+00
     6200     2.338137949E+00     1.349924574E+00     1.785714286E+00
     6201     2.338137949E+00     1.349924574E+00     1.071428571E+00
     6202     2.338137949E+00     1.349924574E+00     3.571428571E-01
     6203     3.678558425E+00     2.123816697E+00     4.591635323E+00
     6204     3.149981795E+00     1.818642837E+00     4.863878441E+00
     6205     4.207135055E+00     2.428990556E+00     4.319392205E+00
     6206     4.735711685E+00     2.734164416E+00     4.047149087E+00
     6207     5.000000000E+00     2.886751346E+00     1.173308258E+00
     6208     5.000000000E+00     2.886751346E+00     3.911027528E-01
     6209     5.000000000E+00     2.886751346E+00     1.955513764E+00
     6210     5.000000000E+00     2.886751346E+00     2.737719270E+00
     6211     5.000000000E+00     2.886751346E+00     3.519924775E+00
     6212     3.336336218E+00     1.926234614E+00    -1.179766760E-16
     6213     2.670870705E+00     1.542027921E+00    -9.444505211E-17
     6214     4.001801731E+00     2.310441307E+00    -1.415083000E-16
     6215     4.667267244E+00     2.694647999E+00    -1.650399239E-16
     6216     2.611915714E+00     1.507990241E+00     5.000000000E+00
-1
eblock,19,solid,,1218
(19i9)
        1        1        1        1        0        0        0        0       20        0        1        1        6       18       17     1644     1658     1653     1652
     1683     1707     1754     1684     6160     6184     6181     6159     1686     1709     1761     1757
        1        1        1        1        0        0        0        0       20        0        2        1       17       16        3     1644     1652     1651     1642
     1684     1749     1693     1682     6159     6178     6155     6153     1686     1757     1753     1695
        1        1        1        1        0        0        0        0       20        0        3        3       16       15        4     1642     1651     1650     1643
     1693     1745     1698     1691     6155     6176     6157     6152     1695     1753     1748     1700
        1        1        1        1        0        0        0        0       20        0        4        1        3        8        2     1644     1642     1646     1641
     1682     1692     1688     1681     6153     6154     6150     6149     1686     1695     1718     1690
        1        1        1        1        0        0        0        0       20        0        5        2        8        7        6     1641     1646     1645     1658
     1688     1710     1706     1687     6150     6161     6163     6151     1690     1718     1714     1709
        1        1        1        1        0        0        0        0       20        0        6        4       15       14        5     1643     1650     1649     1659
     1698     1741     1703     1696     6157     6172     6174     6158     1700     1748     1744     1705
        1        1        1        1        0        0        0        0       20        0        7        4        5       10        9     1643     1659     1648     1647
     1696     1701     1719     1697     6158     6170     6167     6156     1700     1705     1726     1722
        1        1        1        1        0        0        0        0       20        0        8        3        4        9        8     1642     1643     1647     1646
     1691     1697     1715     1692     6152     6156     6165     6154     1695     1700     1722     1718
        1        1        1        1        0        0        0        0       20        0        9        5       12       11       10     1659     1655     1656     1648
     1702     1727     1723     1701     6190     6188     6169     6170     1705     1735     1731     1726
        1        1        1        1        0        0        0        0       20        0       10        5       14       13       12     1659     1649     1657     1655
     1703     1736     1732     1702     6174     6173     6189     6190     1705     1744     1740     1735
        1        1        1        1        0        0        0        0       20        0       11        6        7       19       18     1658     1645     1654     1653
     1706     1711     1758     1707     6163     6162     6183     6184     1709     1714     1765     1761
        1        1        1        1        0        0        0        0       20        0       12        7       27       25       19     1645     1661     1660     1654
     1712     1783     1763     1711     6164     6196     6186     6162     1714     1791     1785     1765
        1        1        1        1        0        0        0        0       20        0       13        7        8       32       27     1645     1646     1662     1661
     1710     1716     1789     1712     6161     6166     6198     6164     1714     1718     1806     1791
        1        1        1        1        0        0        0        0       20        0       14        8        9       34       32     1646     1647     1663     1662
     1715     1720     1804     1716     6165     6168     6199     6166     1718     1722     1812     1806
        1        1        1        1        0        0        0        0       20        0       15        9       10       35       34     1647     1648     1664     1663
     1719     1724     1810     1720     6167     6171     6200     6168     1722     1726     1814     1812
        1        1        1        1        0        0        0        0       20        0       16       10       11       21       35     1648     1656     1665     1664
     1723     1728     1770     1724     6169     6192     6201     6171     1726     1731     1772     1814
        1        1        1        1        0        0        0        0       20        0       17       11       22       20       21     1656     1673     1679     1665
     1729     1767     1766     1728     6193     6213     6202     6192     1731     1775     1769     1772
        1        1        1        1        0        0        0        0       20        0       18       11       12       39       22     1656     1655     1674     1673
     1727     1733     1773     1729     6188     6191     6212     6193     1731     1735     1826     1775
        1        1        1        1        0        0        0        0       20        0       19       12       13       40       39     1655     1657     1675     1674
     1732     1738     1824     1733     6189     6195     6214     6191     1735     1740     1828     1826
        1        1        1        1        0        0        0        0       20        0       20       13       38       36       40     1657     1669     1680     1675
     1737     1815     1816     1738     6194     6208     6215     6195     1740     1823     1818     1828
        1        1        1        1        0        0        0        0       20        0       21       13       14       37       38     1657     1649     1670     1669
     1736     1742     1819     1737     6173     6175     6207     6194     1740     1744     1821     1823
        1        1        1        1        0        0        0        0       20        0       22       14       15       33       37     1649     1650     1671     1670
     1741     1746     1807     1742     6172     6177     6209     6175     1744     1748     1809     1821
        1        1        1        1        0        0        0        0       20        0       23       15       16       31       33     1650     1651     1672     1671
     1745     1751     1801     1746     6176     6180     6210     6177     1748     1753     1803     1809
        1        1        1        1        0        0        0        0       20        0       24       16       29       28       31     1651     1668     1678     1672
     1750     1792     1793     1751     6179     6206     6211     6180     1753     1798     1795     1803
        1        1        1        1        0        0        0        0       20        0       25       16       17       30       29     1651     1652     1667     1668
     1749     1755     1796     1750     6178     6182     6205     6179     1753     1757     1800     1798
        1        1        1        1        0        0        0        0       20        0       26       17       18       26       30     1652     1653     1666     1667
     1754     1759     1786     1755     6181     6185     6203     6182     1757     1761     1788     1800
        1        1        1        1        0        0        0        0       20        0       27       18       19       24       26     1653     1654     1677     1666
     1758     1762     1780     1759     6183     6187     6204     6185     1761     1765     1782     1788
        1        1        1        1        0        0        0        0       20        0       28       19       25       23       24     1654     1660     1676     1677
     1763     1777     1776     1762     6186     6197     6216     6187     1765     1785     1779     1782
        1        1        1        1        0        0        0        0       20        0       29        1       17       18        6       41       57       58       46
     1684     1754     1707     1683     1832     1886     1850     1831     1685     1756     1760     1708
        1        1        1        1        0        0        0        0       20        0       30        1        3       16       17       41       43       56       57
     1682     1693     1749     1684     1830     1839     1882     1832     1685     1694     1752     1756
        1        1        1        1        0        0        0        0       20        0       31        3        4       15       16       43       44       55       56
     1691     1698     1745     1693     1837     1843     1879     1839     1694     1699     1747     1752
        1        1        1        1        0        0        0        0       20        0       32        1        2        8        3       41       42       48       43
     1681     1688     1692     1682     1829     1835     1838     1830     1685     1689     1717     1694
        1        1        1        1        0        0        0        0       20        0       33        2        6        7        8       42       46       47       48
     1687     1706     1710     1688     1834     1849     1852     1835     1689     1708     1713     1717
        1        1        1        1        0        0        0        0       20        0       34        4        5       14       15       44       45       54       55
     1696     1703     1741     1698     1841     1847     1876     1843     1699     1704     1743     1747
        1        1        1        1        0        0        0        0       20        0       35        4        9       10        5       44       49       50       45
     1697     1719     1701     1696     1842     1859     1845     1841     1699     1721     1725     1704
        1        1        1        1        0        0        0        0       20        0       36        3        8        9        4       43       48       49       44
     1692     1715     1697     1691     1838     1856     1842     1837     1694     1717     1721     1699
        1        1        1        1        0        0        0        0       20        0       37        5       10       11       12       45       50       51       52
     1701     1723     1727     1702     1845     1862     1865     1846     1704     1725     1730     1734
        1        1        1        1        0        0        0        0       20        0       38        5       12       13       14       45       52       53       54
     1702     1732     1736     1703     1846     1869     1872     1847     1704     1734     1739     1743
        1        1        1        1        0        0        0        0       20        0       39        6       18       19        7       46       58       59       47
     1707     1758     1711     1706     1850     1889     1853     1849     1708     1760     1764     1713
        1        1        1        1        0        0        0        0       20        0       40        7       19       25       27       47       59       65       67
     1711     1763     1783     1712     1853     1893     1907     1854     1713     1764     1784     1790
        1        1        1        1        0        0        0        0       20        0       41        7       27       32        8       47       67       72       48
     1712     1789     1716     1710     1854     1911     1857     1852     1713     1790     1805     1717
        1        1        1        1        0        0        0        0       20        0       42        8       32       34        9       48       72       74       49
     1716     1804     1720     1715     1857     1921     1860     1856     1717     1805     1811     1721
        1        1        1        1        0        0        0        0       20        0       43        9       34       35       10       49       74       75       50
     1720     1810     1724     1719     1860     1925     1863     1859     1721     1811     1813     1725
        1        1        1        1        0        0        0        0       20        0       44       10       35       21       11       50       75       61       51
     1724     1770     1728     1723     1863     1898     1866     1862     1725     1813     1771     1730
        1        1        1        1        0        0        0        0       20        0       45       11       21       20       22       51       61       60       62
     1728     1766     1767     1729     1866     1895     1896     1867     1730     1771     1768     1774
        1        1        1        1        0        0        0        0       20        0       46       11       22       39       12       51       62       79       52
     1729     1773     1733     1727     1867     1900     1870     1865     1730     1774     1825     1734
        1        1        1        1        0        0        0        0       20        0       47       12       39       40       13       52       79       80       53
     1733     1824     1738     1732     1870     1934     1874     1869     1734     1825     1827     1739
        1        1        1        1        0        0        0        0       20        0       48       13       40       36       38       53       80       76       78
     1738     1816     1815     1737     1874     1929     1928     1873     1739     1827     1817     1822
        1        1        1        1        0        0        0        0       20        0       49       13       38       37       14       53       78       77       54
     1737     1819     1742     1736     1873     1931     1877     1872     1739     1822     1820     1743
        1        1        1        1        0        0        0        0       20        0       50       14       37       33       15       54       77       73       55
     1742     1807     1746     1741     1877     1923     1880     1876     1743     1820     1808     1747
        1        1        1        1        0        0        0        0       20        0       51       15       33       31       16       55       73       71       56
     1746     1801     1751     1745     1880     1919     1884     1879     1747     1808     1802     1752
        1        1        1        1        0        0        0        0       20        0       52       16       31       28       29       56       71       68       69
     1751     1793     1792     1750     1884     1914     1913     1883     1752     1802     1794     1797
        1        1        1        1        0        0        0        0       20        0       53       16       29       30       17       56       69       70       57
     1750     1796     1755     1749     1883     1916     1887     1882     1752     1797     1799     1756
        1        1        1        1        0        0        0        0       20        0       54       17       30       26       18       57       70       66       58
     1755     1786     1759     1754     1887     1909     1890     1886     1756     1799     1787     1760
        1        1        1        1        0        0        0        0       20        0       55       18       26       24       19       58       66       64       59
     1759     1780     1762     1758     1890     1905     1892     1889     1760     1787     1781     1764
        1        1        1        1        0        0        0        0       20        0       56       19       24       23       25       59       64       63       65
     1762     1776     1777     1763     1892     1902     1903     1893     1764     1781     1778     1784
        1        1        1        1        0        0        0        0       20        0       57       41       57       58       46       81       97       98       86
     1832     1886     1850     1831     1940     1994     1958     1939     1833     1888     1891     1851
        1        1        1        1        0        0        0        0       20        0       58       41       43       56       57       81       83       96       97
     1830     1839     1882     1832     1938     1947     1990     1940     1833     1840     1885     1888
        1        1        1        1        0        0        0        0       20        0       59       43       44       55       56       83       84       95       96
     1837     1843     1879     1839     1945     1951     1987     1947     1840     1844     1881     1885
        1        1        1        1        0        0        0        0       20        0       60       41       42       48       43       81       82       88       83
     1829     1835     1838     1830     1937     1943     1946     1938     1833     1836     1858     1840
        1        1        1        1        0        0        0        0       20        0       61       42       46       47       48       82       86       87       88
     1834     1849     1852     1835     1942     1957     1960     1943     1836     1851     1855     1858
        1        1        1        1        0        0        0        0       20        0       62       44       45       54       55       84       85       94       95
     1841     1847     1876     1843     1949     1955     1984     1951     1844     1848     1878     1881
        1        1        1        1        0        0        0        0       20        0       63       44       49       50       45       84       89       90       85
     1842     1859     1845     1841     1950     1967     1953     1949     1844     1861     1864     1848
        1        1        1        1        0        0        0        0       20        0       64       43       48       49       44       83       88       89       84
     1838     1856     1842     1837     1946     1964     1950     1945     1840     1858     1861     1844
        1        1        1        1        0        0        0        0       20        0       65       45       50       51       52       85       90       91       92
     1845     1862     1865     1846     1953     1970     1973     1954     1848     1864     1868     1871
        1        1        1        1        0        0        0        0       20        0       66       45       52       53       54       85       92       93       94
     1846     1869     1872     1847     1954     1977     1980     1955     1848     1871     1875     1878
        1        1        1        1        0        0        0        0       20        0       67       46       58       59       47       86       98       99       87
     1850     1889     1853     1849     1958     1997     1961     1957     1851     1891     1894     1855
        1        1        1        1        0        0        0        0       20        0       68       47       59       65       67       87       99      105      107
     1853     1893     1907     1854     1961     2001     2015     1962     1855     1894     1908     1912
        1        1        1        1        0        0        0        0       20        0       69       47       67       72       48       87      107      112       88
     1854     1911     1857     1852     1962     2019     1965     1960     1855     1912     1922     1858
        1        1        1        1        0        0        0        0       20        0       70       48       72       74       49       88      112      114       89
     1857     1921     1860     1856     1965     2029     1968     1964     1858     1922     1926     1861
        1        1        1        1        0        0        0        0       20        0       71       49       74       75       50       89      114      115       90
     1860     1925     1863     1859     1968     2033     1971     1967     1861     1926     1927     1864
        1        1        1        1        0        0        0        0       20        0       72       50       75       61       51       90      115      101       91
     1863     1898     1866     1862     1971     2006     1974     1970     1864     1927     1899     1868
        1        1        1        1        0        0        0        0       20        0       73       51       61       60       62       91      101      100      102
     1866     1895     1896     1867     1974     2003     2004     1975     1868     1899     1897     1901
        1        1        1        1        0        0        0        0       20        0       74       51       62       79       52       91      102      119       92
     1867     1900     1870     1865     1975     2008     1978     1973     1868     1901     1935     1871
        1        1        1        1        0        0        0        0       20        0       75       52       79       80       53       92      119      120       93
     1870     1934     1874     1869     1978     2042     1982     1977     1871     1935     1936     1875
        1        1        1        1        0        0        0        0       20        0       76       53       80       76       78       93      120      116      118
     1874     1929     1928     1873     1982     2037     2036     1981     1875     1936     1930     1933
        1        1        1        1        0        0        0        0       20        0       77       53       78       77       54       93      118      117       94
     1873     1931     1877     1872     1981     2039     1985     1980     1875     1933     1932     1878
        1        1        1        1        0        0        0        0       20        0       78       54       77       73       55       94      117      113       95
     1877     1923     1880     1876     1985     2031     1988     1984     1878     1932     1924     1881
        1        1        1        1        0        0        0        0       20        0       79       55       73       71       56       95      113      111       96
     1880     1919     1884     1879     1988     2027     1992     1987     1881     1924     1920     1885
        1        1        1        1        0        0        0        0       20        0       80       56       71       68       69       96      111      108      109
     1884     1914     1913     1883     1992     2022     2021     1991     1885     1920     1915     1917
        1        1        1        1        0        0        0        0       20        0       81       56       69       70       57       96      109      110       97
     1883     1916     1887     1882     1991     2024     1995     1990     1885     1917     1918     1888
        1        1        1        1        0        0        0        0       20        0       82       57       70       66       58       97      110      106       98
     1887     1909     1890     1886     1995     2017     1998     1994     1888     1918     1910     1891
        1        1        1        1        0        0        0        0       20        0       83       58       66       64       59       98      106      104       99
     1890     1905     1892     1889     1998     2013     2000     1997     1891     1910     1906     1894
        1        1        1        1        0        0        0        0       20        0       84       59       64       63       65       99      104      103      105
     1892     1902     1903     1893     2000     2010     2011     2001     1894     1906     1904     1908
        1        1        1        1        0        0        0        0       20        0       85       81       97       98       86      121      137      138      126
     1940     1994     1958     1939     2048     2102     2066     2047     1941     1996     1999     1959
        1        1        1        1        0        0        0        0       20        0       86       81       83       96       97      121      123      136      137
     1938     1947     1990     1940     2046     2055     2098     2048     1941     1948     1993     1996
        1        1        1        1        0        0        0        0       20        0       87       83       84       95       96      123      124      135      136
     1945     1951     1987     1947     2053     2059     2095     2055     1948     1952     1989     1993
        1        1        1        1        0        0        0        0       20        0       88       81       82       88       83      121      122      128      123
     1937     1943     1946     1938     2045     2051     2054     2046     1941     1944     1966     1948
        1        1        1        1        0        0        0        0       20        0       89       82       86       87       88      122      126      127      128
     1942     1957     1960     1943     2050     2065     2068     2051     1944     1959     1963     1966
        1        1        1        1        0        0        0        0       20        0       90       84       85       94       95      124      125      134      135
     1949     1955     1984     1951     2057     2063     2092     2059     1952     1956     1986     1989
        1        1        1        1        0        0        0        0       20        0       91       84       89       90       85      124      129      130      125
     1950     1967     1953     1949     2058     2075     2061     2057     1952     1969     1972     1956
        1        1        1        1        0        0        0        0       20        0       92       83       88       89       84      123      128      129      124
     1946     1964     1950     1945     2054     2072     2058     2053     1948     1966     1969     1952
        1        1        1        1        0        0        0        0       20        0       93       85       90       91       92      125      130      131      132
     1953     1970     1973     1954     2061     2078     2081     2062     1956     1972     1976     1979
        1        1        1        1        0        0        0        0       20        0       94       85       92       93       94      125      132      133      134
     1954     1977     1980     1955     2062     2085     2088     2063     1956     1979     1983     1986
        1        1        1        1        0        0        0        0       20        0       95       86       98       99       87      126      138      139      127
     1958     1997     1961     1957     2066     2105     2069     2065     1959     1999     2002     1963
        1        1        1        1        0        0        0        0       20        0       96       87       99      105      107      127      139      145      147
     1961     2001     2015     1962     2069     2109     2123     2070     1963     2002     2016     2020
        1        1        1        1        0        0        0        0       20        0       97       87      107      112       88      127      147      152      128
     1962     2019     1965     1960     2070     2127     2073     2068     1963     2020     2030     1966
        1        1        1        1        0        0        0        0       20        0       98       88      112      114       89      128      152      154      129
     1965     2029     1968     1964     2073     2137     2076     2072     1966     2030     2034     1969
        1        1        1        1        0        0        0        0       20        0       99       89      114      115       90      129      154      155      130
     1968     2033     1971     1967     2076     2141     2079     2075     1969     2034     2035     1972
        1        1        1        1        0        0        0        0       20        0      100       90      115      101       91      130      155      141      131
     1971     2006     1974     1970     2079     2114     2082     2078     1972     2035     2007     1976
        1        1        1        1        0        0        0        0       20        0      101       91      101      100      102      131      141      140      142
     1974     2003     2004     1975     2082     2111     2112     2083     1976     2007     2005     2009
        1        1        1        1        0        0        0        0       20        0      102       91      102      119       92      131      142      159      132
     1975     2008     1978     1973     2083     2116     2086     2081     1976     2009     2043     1979
        1        1        1        1        0        0        0        0       20        0      103       92      119      120       93      132      159      160      133
     1978     2042     1982     1977     2086     2150     2090     2085     1979     2043     2044     1983
        1        1        1        1        0        0        0        0       20        0      104       93      120      116      118      133      160      156      158
     1982     2037     2036     1981     2090     2145     2144     2089     1983     2044     2038     2041
        1        1        1        1        0        0        0        0       20        0      105       93      118      117       94      133      158      157      134
     1981     2039     1985     1980     2089     2147     2093     2088     1983     2041     2040     1986
        1        1        1        1        0        0        0        0       20        0      106       94      117      113       95      134      157      153      135
     1985     2031     1988     1984     2093     2139     2096     2092     1986     2040     2032     1989
        1        1        1        1        0        0        0        0       20        0      107       95      113      111       96      135      153      151      136
     1988     2027     1992     1987     2096     2135     2100     2095     1989     2032     2028     1993
        1        1        1        1        0        0        0        0       20        0      108       96      111      108      109      136      151      148      149
     1992     2022     2021     1991     2100     2130     2129     2099     1993     2028     2023     2025
        1        1        1        1        0        0        0        0       20        0      109       96      109      110       97      136      149      150      137
     1991     2024     1995     1990     2099     2132     2103     2098     1993     2025     2026     1996
        1        1        1        1        0        0        0        0       20        0      110       97      110      106       98      137      150      146      138
     1995     2017     1998     1994     2103     2125     2106     2102     1996     2026     2018     1999
        1        1        1        1        0        0        0        0       20        0      111       98      106      104       99      138      146      144      139
     1998     2013     2000     1997     2106     2121     2108     2105     1999     2018     2014     2002
        1        1        1        1        0        0        0        0       20        0      112       99      104      103      105      139      144      143      145
     2000     2010     2011     2001     2108     2118     2119     2109     2002     2014     2012     2016
        1        1        1        1        0        0        0        0       20        0      113      121      137      138      126      161      177      178      166
     2048     2102     2066     2047     2156     2210     2174     2155     2049     2104     2107     2067
        1        1        1        1        0        0        0        0       20        0      114      121      123      136      137      161      163      176      177
     2046     2055     2098     2048     2154     2163     2206     2156     2049     2056     2101     2104
        1        1        1        1        0        0        0        0       20        0      115      123      124      135      136      163      164      175      176
     2053     2059     2095     2055     2161     2167     2203     2163     2056     2060     2097     2101
        1        1        1        1        0        0        0        0       20        0      116      121      122      128      123      161      162      168      163
     2045     2051     2054     2046     2153     2159     2162     2154     2049     2052     2074     2056
        1        1        1        1        0        0        0        0       20        0      117      122      126      127      128      162      166      167      168
     2050     2065     2068     2051     2158     2173     2176     2159     2052     2067     2071     2074
        1        1        1        1        0        0        0        0       20        0      118      124      125      134      135      164      165      174      175
     2057     2063     2092     2059     2165     2171     2200     2167     2060     2064     2094     2097
        1        1        1        1        0        0        0        0       20        0      119      124      129      130      125      164      169      170      165
     2058     2075     2061     2057     2166     2183     2169     2165     2060     2077     2080     2064
        1        1        1        1        0        0        0        0       20        0      120      123      128      129      124      163      168      169      164
     2054     2072     2058     2053     2162     2180     2166     2161     2056     2074     2077     2060
        1        1        1        1        0        0        0        0       20        0      121      125      130      131      132      165      170      171      172
     2061     2078     2081     2062     2169     2186     2189     2170     2064     2080     2084     2087
        1        1        1        1        0        0        0        0       20        0      122      125      132      133      134      165      172      173      174
     2062     2085     2088     2063     2170     2193     2196     2171     2064     2087     2091     2094
        1        1        1        1        0        0        0        0       20        0      123      126      138      139      127      166      178      179      167
     2066     2105     2069     2065     2174     2213     2177     2173     2067     2107     2110     2071
        1        1        1        1        0        0        0        0       20        0      124      127      139      145      147      167      179      185      187
     2069     2109     2123     2070     2177     2217     2231     2178     2071     2110     2124     2128
        1        1        1        1        0        0        0        0       20        0      125      127      147      152      128      167      187      192      168
     2070     2127     2073     2068     2178     2235     2181     2176     2071     2128     2138     2074
        1        1        1        1        0        0        0        0       20        0      126      128      152      154      129      168      192      194      169
     2073     2137     2076     2072     2181     2245     2184     2180     2074     2138     2142     2077
        1        1        1        1        0        0        0        0       20        0      127      129      154      155      130      169      194      195      170
     2076     2141     2079     2075     2184     2249     2187     2183     2077     2142     2143     2080
        1        1        1        1        0        0        0        0       20        0      128      130      155      141      131      170      195      181      171
     2079     2114     2082     2078     2187     2222     2190     2186     2080     2143     2115     2084
        1        1        1        1        0        0        0        0       20        0      129      131      141      140      142      171      181      180      182
     2082     2111     2112     2083     2190     2219     2220     2191     2084     2115     2113     2117
        1        1        1        1        0        0        0        0       20        0      130      131      142      159      132      171      182      199      172
     2083     2116     2086     2081     2191     2224     2194     2189     2084     2117     2151     2087
        1        1        1        1        0        0        0        0       20        0      131      132      159      160      133      172      199      200      173
     2086     2150     2090     2085     2194     2258     2198     2193     2087     2151     2152     2091
        1        1        1        1        0        0        0        0       20        0      132      133      160      156      158      173      200      196      198
     2090     2145     2144     2089     2198     2253     2252     2197     2091     2152     2146     2149
        1        1        1        1        0        0        0        0       20        0      133      133      158      157      134      173      198      197      174
     2089     2147     2093     2088     2197     2255     2201     2196     2091     2149     2148     2094
        1        1        1        1        0        0        0        0       20        0      134      134      157      153      135      174      197      193      175
     2093     2139     2096     2092     2201     2247     2204     2200     2094     2148     2140     2097
        1        1        1        1        0        0        0        0       20        0      135      135      153      151      136      175      193      191      176
     2096     2135     2100     2095     2204     2243     2208     2203     2097     2140     2136     2101
        1        1        1        1        0        0        0        0       20        0      136      136      151      148      149      176      191      188      189
     2100     2130     2129     2099     2208     2238     2237     2207     2101     2136     2131     2133
        1        1        1        1        0        0        0        0       20        0      137      136      149      150      137      176      189      190      177
     2099     2132     2103     2098     2207     2240     2211     2206     2101     2133     2134     2104
        1        1        1        1        0        0        0        0       20        0      138      137      150      146      138      177      190      186      178
     2103     2125     2106     2102     2211     2233     2214     2210     2104     2134     2126     2107
        1        1        1        1        0        0        0        0       20        0      139      138      146      144      139      178      186      184      179
     2106     2121     2108     2105     2214     2229     2216     2213     2107     2126     2122     2110
        1        1        1        1        0        0        0        0       20        0      140      139      144      143      145      179      184      183      185
     2108     2118     2119     2109     2216     2226     2227     2217     2110     2122     2120     2124
        1        1        1        1        0        0        0        0       20        0      141      161      177      178      166      201      217      218      206
     2156     2210     2174     2155     2264     2318     2282     2263     2157     2212     2215     2175
        1        1        1        1        0        0        0        0       20        0      142      161      163      176      177      201      203      216      217
     2154     2163     2206     2156     2262     2271     2314     2264     2157     2164     2209     2212
        1        1        1        1        0        0        0        0       20        0      143      163      164      175      176      203      204      215      216
     2161     2167     2203     2163     2269     2275     2311     2271     2164     2168     2205     2209
        1        1        1        1        0        0        0        0       20        0      144      161      162      168      163      201      202      208      203
     2153     2159     2162     2154     2261     2267     2270     2262     2157     2160     2182     2164
        1        1        1        1        0        0        0        0       20        0      145      162      166      167      168      202      206      207      208
     2158     2173     2176     2159     2266     2281     2284     2267     2160     2175     2179     2182
        1        1        1        1        0        0        0        0       20        0      146      164      165      174      175      204      205      214      215
     2165     2171     2200     2167     2273     2279     2308     2275     2168     2172     2202     2205
        1        1        1        1        0        0        0        0       20        0      147      164      169      170      165      204      209      210      205
     2166     2183     2169     2165     2274     2291     2277     2273     2168     2185     2188     2172
        1        1        1        1        0        0        0        0       20        0      148      163      168      169      164      203      208      209      204
     2162     2180     2166     2161     2270     2288     2274     2269     2164     2182     2185     2168
        1        1        1        1        0        0        0        0       20        0      149      165      170      171      172      205      210      211      212
     2169     2186     2189     2170     2277     2294     2297     2278     2172     2188     2192     2195
        1        1        1        1        0        0        0        0       20        0      150      165      172      173      174      205      212      213      214
     2170     2193     2196     2171     2278     2301     2304     2279     2172     2195     2199     2202
        1        1        1        1        0        0        0        0       20        0      151      166      178      179      167      206      218      219      207
     2174     2213     2177     2173     2282     2321     2285     2281     2175     2215     2218     2179
        1        1        1        1        0        0        0        0       20        0      152      167      179      185      187      207      219      225      227
     2177     2217     2231     2178     2285     2325     2339     2286     2179     2218     2232     2236
        1        1        1        1        0        0        0        0       20        0      153      167      187      192      168      207      227      232      208
     2178     2235     2181     2176     2286     2343     2289     2284     2179     2236     2246     2182
        1        1        1        1        0        0        0        0       20        0      154      168      192      194      169      208      232      234      209
     2181     2245     2184     2180     2289     2353     2292     2288     2182     2246     2250     2185
        1        1        1        1        0        0        0        0       20        0      155      169      194      195      170      209      234      235      210
     2184     2249     2187     2183     2292     2357     2295     2291     2185     2250     2251     2188
        1        1        1        1        0        0        0        0       20        0      156      170      195      181      171      210      235      221      211
     2187     2222     2190     2186     2295     2330     2298     2294     2188     2251     2223     2192
        1        1        1        1        0        0        0        0       20        0      157      171      181      180      182      211      221      220      222
     2190     2219     2220     2191     2298     2327     2328     2299     2192     2223     2221     2225
        1        1        1        1        0        0        0        0       20        0      158      171      182      199      172      211      222      239      212
     2191     2224     2194     2189     2299     2332     2302     2297     2192     2225     2259     2195
        1        1        1        1        0        0        0        0       20        0      159      172      199      200      173      212      239      240      213
     2194     2258     2198     2193     2302     2366     2306     2301     2195     2259     2260     2199
        1        1        1        1        0        0        0        0       20        0      160      173      200      196      198      213      240      236      238
     2198     2253     2252     2197     2306     2361     2360     2305     2199     2260     2254     2257
        1        1        1        1        0        0        0        0       20        0      161      173      198      197      174      213      238      237      214
     2197     2255     2201     2196     2305     2363     2309     2304     2199     2257     2256     2202
        1        1        1        1        0        0        0        0       20        0      162      174      197      193      175      214      237      233      215
     2201     2247     2204     2200     2309     2355     2312     2308     2202     2256     2248     2205
        1        1        1        1        0        0        0        0       20        0      163      175      193      191      176      215      233      231      216
     2204     2243     2208     2203     2312     2351     2316     2311     2205     2248     2244     2209
        1        1        1        1        0        0        0        0       20        0      164      176      191      188      189      216      231      228      229
     2208     2238     2237     2207     2316     2346     2345     2315     2209     2244     2239     2241
        1        1        1        1        0        0        0        0       20        0      165      176      189      190      177      216      229      230      217
     2207     2240     2211     2206     2315     2348     2319     2314     2209     2241     2242     2212
        1        1        1        1        0        0        0        0       20        0      166      177      190      186      178      217      230      226      218
     2211     2233     2214     2210     2319     2341     2322     2318     2212     2242     2234     2215
        1        1        1        1        0        0        0        0       20        0      167      178      186      184      179      218      226      224      219
     2214     2229     2216     2213     2322     2337     2324     2321     2215     2234     2230     2218
        1        1        1        1        0        0        0        0       20        0      168      179      184      183      185      219      224      223      225
     2216     2226     2227     2217     2324     2334     2335     2325     2218     2230     2228     2232
        1        1        1        1        0        0        0        0       20        0      169      201      217      218      206      241      257      258      246
     2264     2318     2282     2263     2372     2426     2390     2371     2265     2320     2323     2283
        1        1        1        1        0        0        0        0       20        0      170      201      203      216      217      241      243      256      257
     2262     2271     2314     2264     2370     2379     2422     2372     2265     2272     2317     2320
        1        1        1        1        0        0        0        0       20        0      171      203      204      215      216      243      244      255      256
     2269     2275     2311     2271     2377     2383     2419     2379     2272     2276     2313     2317
        1        1        1        1        0        0        0        0       20        0      172      201      202      208      203      241      242      248      243
     2261     2267     2270     2262     2369     2375     2378     2370     2265     2268     2290     2272
        1        1        1        1        0        0        0        0       20        0      173      202      206      207      208      242      246      247      248
     2266     2281     2284     2267     2374     2389     2392     2375     2268     2283     2287     2290
        1        1        1        1        0        0        0        0       20        0      174      204      205      214      215      244      245      254      255
     2273     2279     2308     2275     2381     2387     2416     2383     2276     2280     2310     2313
        1        1        1        1        0        0        0        0       20        0      175      204      209      210      205      244      249      250      245
     2274     2291     2277     2273     2382     2399     2385     2381     2276     2293     2296     2280
        1        1        1        1        0        0        0        0       20        0      176      203      208      209      204      243      248      249      244
     2270     2288     2274     2269     2378     2396     2382     2377     2272     2290     2293     2276
        1        1        1        1        0        0        0        0       20        0      177      205      210      211      212      245      250      251      252
     2277     2294     2297     2278     2385     2402     2405     2386     2280     2296     2300     2303
        1        1        1        1        0        0        0        0       20        0      178      205      212      213      214      245      252      253      254
     2278     2301     2304     2279     2386     2409     2412     2387     2280     2303     2307     2310
        1        1        1        1        0        0        0        0       20        0      179      206      218      219      207      246      258      259      247
     2282     2321     2285     2281     2390     2429     2393     2389     2283     2323     2326     2287
        1        1        1        1        0        0        0        0       20        0      180      207      219      225      227      247      259      265      267
     2285     2325     2339     2286     2393     2433     2447     2394     2287     2326     2340     2344
        1        1        1        1        0        0        0        0       20        0      181      207      227      232      208      247      267      272      248
     2286     2343     2289     2284     2394     2451     2397     2392     2287     2344     2354     2290
        1        1        1        1        0        0        0        0       20        0      182      208      232      234      209      248      272      274      249
     2289     2353     2292     2288     2397     2461     2400     2396     2290     2354     2358     2293
        1        1        1        1        0        0        0        0       20        0      183      209      234      235      210      249      274      275      250
     2292     2357     2295     2291     2400     2465     2403     2399     2293     2358     2359     2296
        1        1        1        1        0        0        0        0       20        0      184      210      235      221      211      250      275      261      251
     2295     2330     2298     2294     2403     2438     2406     2402     2296     2359     2331     2300
        1        1        1        1        0        0        0        0       20        0      185      211      221      220      222      251      261      260      262
     2298     2327     2328     2299     2406     2435     2436     2407     2300     2331     2329     2333
        1        1        1        1        0        0        0        0       20        0      186      211      222      239      212      251      262      279      252
     2299     2332     2302     2297     2407     2440     2410     2405     2300     2333     2367     2303
        1        1        1        1        0        0        0        0       20        0      187      212      239      240      213      252      279      280      253
     2302     2366     2306     2301     2410     2474     2414     2409     2303     2367     2368     2307
        1        1        1        1        0        0        0        0       20        0      188      213      240      236      238      253      280      276      278
     2306     2361     2360     2305     2414     2469     2468     2413     2307     2368     2362     2365
        1        1        1        1        0        0        0        0       20        0      189      213      238      237      214      253      278      277      254
     2305     2363     2309     2304     2413     2471     2417     2412     2307     2365     2364     2310
        1        1        1        1        0        0        0        0       20        0      190      214      237      233      215      254      277      273      255
     2309     2355     2312     2308     2417     2463     2420     2416     2310     2364     2356     2313
        1        1        1        1        0        0        0        0       20        0      191      215      233      231      216      255      273      271      256
     2312     2351     2316     2311     2420     2459     2424     2419     2313     2356     2352     2317
        1        1        1        1        0        0        0        0       20        0      192      216      231      228      229      256      271      268      269
     2316     2346     2345     2315     2424     2454     2453     2423     2317     2352     2347     2349
        1        1        1        1        0        0        0        0       20        0      193      216      229      230      217      256      269      270      257
     2315     2348     2319     2314     2423     2456     2427     2422     2317     2349     2350     2320
        1        1        1        1        0        0        0        0       20        0      194      217      230      226      218      257      270      266      258
     2319     2341     2322     2318     2427     2449     2430     2426     2320     2350     2342     2323
        1        1        1        1        0        0        0        0       20        0      195      218      226      224      219      258      266      264      259
     2322     2337     2324     2321     2430     2445     2432     2429     2323     2342     2338     2326
        1        1        1        1        0        0        0        0       20        0      196      219      224      223      225      259      264      263      265
     2324     2334     2335     2325     2432     2442     2443     2433     2326     2338     2336     2340
        1        1        1        1        0        0        0        0       20        0      197      241      257      258      246      281      297      298      286
     2372     2426     2390     2371     2480     2534     2498     2479     2373     2428     2431     2391
        1        1        1        1        0        0        0        0       20        0      198      241      243      256      257      281      283      296      297
     2370     2379     2422     2372     2478     2487     2530     2480     2373     2380     2425     2428
        1        1        1        1        0        0        0        0       20        0      199      243      244      255      256      283      284      295      296
     2377     2383     2419     2379     2485     2491     2527     2487     2380     2384     2421     2425
        1        1        1        1        0        0        0        0       20        0      200      241      242      248      243      281      282      288      283
     2369     2375     2378     2370     2477     2483     2486     2478     2373     2376     2398     2380
        1        1        1        1        0        0        0        0       20        0      201      242      246      247      248      282      286      287      288
     2374     2389     2392     2375     2482     2497     2500     2483     2376     2391     2395     2398
        1        1        1        1        0        0        0        0       20        0      202      244      245      254      255      284      285      294      295
     2381     2387     2416     2383     2489     2495     2524     2491     2384     2388     2418     2421
        1        1        1        1        0        0        0        0       20        0      203      244      249      250      245      284      289      290      285
     2382     2399     2385     2381     2490     2507     2493     2489     2384     2401     2404     2388
        1        1        1        1        0        0        0        0       20        0      204      243      248      249      244      283      288      289      284
     2378     2396     2382     2377     2486     2504     2490     2485     2380     2398     2401     2384
        1        1        1        1        0        0        0        0       20        0      205      245      250      251      252      285      290      291      292
     2385     2402     2405     2386     2493     2510     2513     2494     2388     2404     2408     2411
        1        1        1        1        0        0        0        0       20        0      206      245      252      253      254      285      292      293      294
     2386     2409     2412     2387     2494     2517     2520     2495     2388     2411     2415     2418
        1        1        1        1        0        0        0        0       20        0      207      246      258      259      247      286      298      299      287
     2390     2429     2393     2389     2498     2537     2501     2497     2391     2431     2434     2395
        1        1        1        1        0        0        0        0       20        0      208      247      259      265      267      287      299      305      307
     2393     2433     2447     2394     2501     2541     2555     2502     2395     2434     2448     2452
        1        1        1        1        0        0        0        0       20        0      209      247      267      272      248      287      307      312      288
     2394     2451     2397     2392     2502     2559     2505     2500     2395     2452     2462     2398
        1        1        1        1        0        0        0        0       20        0      210      248      272      274      249      288      312      314      289
     2397     2461     2400     2396     2505     2569     2508     2504     2398     2462     2466     2401
        1        1        1        1        0        0        0        0       20        0      211      249      274      275      250      289      314      315      290
     2400     2465     2403     2399     2508     2573     2511     2507     2401     2466     2467     2404
        1        1        1        1        0        0        0        0       20        0      212      250      275      261      251      290      315      301      291
     2403     2438     2406     2402     2511     2546     2514     2510     2404     2467     2439     2408
        1        1        1        1        0        0        0        0       20        0      213      251      261      260      262      291      301      300      302
     2406     2435     2436     2407     2514     2543     2544     2515     2408     2439     2437     2441
        1        1        1        1        0        0        0        0       20        0      214      251      262      279      252      291      302      319      292
     2407     2440     2410     2405     2515     2548     2518     2513     2408     2441     2475     2411
        1        1        1        1        0        0        0        0       20        0      215      252      279      280      253      292      319      320      293
     2410     2474     2414     2409     2518     2582     2522     2517     2411     2475     2476     2415
        1        1        1        1        0        0        0        0       20        0      216      253      280      276      278      293      320      316      318
     2414     2469     2468     2413     2522     2577     2576     2521     2415     2476     2470     2473
        1        1        1        1        0        0        0        0       20        0      217      253      278      277      254      293      318      317      294
     2413     2471     2417     2412     2521     2579     2525     2520     2415     2473     2472     2418
        1        1        1        1        0        0        0        0       20        0      218      254      277      273      255      294      317      313      295
     2417     2463     2420     2416     2525     2571     2528     2524     2418     2472     2464     2421
        1        1        1        1        0        0        0        0       20        0      219      255      273      271      256      295      313      311      296
     2420     2459     2424     2419     2528     2567     2532     2527     2421     2464     2460     2425
        1        1        1        1        0        0        0        0       20        0      220      256      271      268      269      296      311      308      309
     2424     2454     2453     2423     2532     2562     2561     2531     2425     2460     2455     2457
        1        1        1        1        0        0        0        0       20        0      221      256      269      270      257      296      309      310      297
     2423     2456     2427     2422     2531     2564     2535     2530     2425     2457     2458     2428
        1        1        1        1        0        0        0        0       20        0      222      257      270      266      258      297      310      306      298
     2427     2449     2430     2426     2535     2557     2538     2534     2428     2458     2450     2431
        1        1        1        1        0        0        0        0       20        0      223      258      266      264      259      298      306      304      299
     2430     2445     2432     2429     2538     2553     2540     2537     2431     2450     2446     2434
        1        1        1        1        0        0        0        0       20        0      224      259      264      263      265      299      304      303      305
     2432     2442     2443     2433     2540     2550     2551     2541     2434     2446     2444     2448
        1        1        1        1        0        0        0        0       20        0      225      281      297      298      286      321      337      338      326
     2480     2534     2498     2479     2588     2642     2606     2587     2481     2536     2539     2499
        1        1        1        1        0        0        0        0       20        0      226      281      283      296      297      321      323      336      337
     2478     2487     2530     2480     2586     2595     2638     2588     2481     2488     2533     2536
        1        1        1        1        0        0        0        0       20        0      227      283      284      295      296      323      324      335      336
     2485     2491     2527     2487     2593     2599     2635     2595     2488     2492     2529     2533
        1        1        1        1        0        0        0        0       20        0      228      281      282      288      283      321      322      328      323
     2477     2483     2486     2478     2585     2591     2594     2586     2481     2484     2506     2488
        1        1        1        1        0        0        0        0       20        0      229      282      286      287      288      322      326      327      328
     2482     2497     2500     2483     2590     2605     2608     2591     2484     2499     2503     2506
        1        1        1        1        0        0        0        0       20        0      230      284      285      294      295      324      325      334      335
     2489     2495     2524     2491     2597     2603     2632     2599     2492     2496     2526     2529
        1        1        1        1        0        0        0        0       20        0      231      284      289      290      285      324      329      330      325
     2490     2507     2493     2489     2598     2615     2601     2597     2492     2509     2512     2496
        1        1        1        1        0        0        0        0       20        0      232      283      288      289      284      323      328      329      324
     2486     2504     2490     2485     2594     2612     2598     2593     2488     2506     2509     2492
        1        1        1        1        0        0        0        0       20        0      233      285      290      291      292      325      330      331      332
     2493     2510     2513     2494     2601     2618     2621     2602     2496     2512     2516     2519
        1        1        1        1        0        0        0        0       20        0      234      285      292      293      294      325      332      333      334
     2494     2517     2520     2495     2602     2625     2628     2603     2496     2519     2523     2526
        1        1        1        1        0        0        0        0       20        0      235      286      298      299      287      326      338      339      327
     2498     2537     2501     2497     2606     2645     2609     2605     2499     2539     2542     2503
        1        1        1        1        0        0        0        0       20        0      236      287      299      305      307      327      339      345      347
     2501     2541     2555     2502     2609     2649     2663     2610     2503     2542     2556     2560
        1        1        1        1        0        0        0        0       20        0      237      287      307      312      288      327      347      352      328
     2502     2559     2505     2500     2610     2667     2613     2608     2503     2560     2570     2506
        1        1        1        1        0        0        0        0       20        0      238      288      312      314      289      328      352      354      329
     2505     2569     2508     2504     2613     2677     2616     2612     2506     2570     2574     2509
        1        1        1        1        0        0        0        0       20        0      239      289      314      315      290      329      354      355      330
     2508     2573     2511     2507     2616     2681     2619     2615     2509     2574     2575     2512
        1        1        1        1        0        0        0        0       20        0      240      290      315      301      291      330      355      341      331
     2511     2546     2514     2510     2619     2654     2622     2618     2512     2575     2547     2516
        1        1        1        1        0        0        0        0       20        0      241      291      301      300      302      331      341      340      342
     2514     2543     2544     2515     2622     2651     2652     2623     2516     2547     2545     2549
        1        1        1        1        0        0        0        0       20        0      242      291      302      319      292      331      342      359      332
     2515     2548     2518     2513     2623     2656     2626     2621     2516     2549     2583     2519
        1        1        1        1        0        0        0        0       20        0      243      292      319      320      293      332      359      360      333
     2518     2582     2522     2517     2626     2690     2630     2625     2519     2583     2584     2523
        1        1        1        1        0        0        0        0       20        0      244      293      320      316      318      333      360      356      358
     2522     2577     2576     2521     2630     2685     2684     2629     2523     2584     2578     2581
        1        1        1        1        0        0        0        0       20        0      245      293      318      317      294      333      358      357      334
     2521     2579     2525     2520     2629     2687     2633     2628     2523     2581     2580     2526
        1        1        1        1        0        0        0        0       20        0      246      294      317      313      295      334      357      353      335
     2525     2571     2528     2524     2633     2679     2636     2632     2526     2580     2572     2529
        1        1        1        1        0        0        0        0       20        0      247      295      313      311      296      335      353      351      336
     2528     2567     2532     2527     2636     2675     2640     2635     2529     2572     2568     2533
        1        1        1        1        0        0        0        0       20        0      248      296      311      308      309      336      351      348      349
     2532     2562     2561     2531     2640     2670     2669     2639     2533     2568     2563     2565
        1        1        1        1        0        0        0        0       20        0      249      296      309      310      297      336      349      350      337
     2531     2564     2535     2530     2639     2672     2643     2638     2533     2565     2566     2536
        1        1        1        1        0        0        0        0       20        0      250      297      310      306      298      337      350      346      338
     2535     2557     2538     2534     2643     2665     2646     2642     2536     2566     2558     2539
        1        1        1        1        0        0        0        0       20        0      251      298      306      304      299      338      346      344      339
     2538     2553     2540     2537     2646     2661     2648     2645     2539     2558     2554     2542
        1        1        1        1        0        0        0        0       20        0      252      299      304      303      305      339      344      343      345
     2540     2550     2551     2541     2648     2658     2659     2649     2542     2554     2552     2556
        1        1        1        1        0        0        0        0       20        0      253      321      337      338      326      361      377      378      366
     2588     2642     2606     2587     2696     2750     2714     2695     2589     2644     2647     2607
        1        1        1        1        0        0        0        0       20        0      254      321      323      336      337      361      363      376      377
     2586     2595     2638     2588     2694     2703     2746     2696     2589     2596     2641     2644
        1        1        1        1        0        0        0        0       20        0      255      323      324      335      336      363      364      375      376
     2593     2599     2635     2595     2701     2707     2743     2703     2596     2600     2637     2641
        1        1        1        1        0        0        0        0       20        0      256      321      322      328      323      361      362      368      363
     2585     2591     2594     2586     2693     2699     2702     2694     2589     2592     2614     2596
        1        1        1        1        0        0        0        0       20        0      257      322      326      327      328      362      366      367      368
     2590     2605     2608     2591     2698     2713     2716     2699     2592     2607     2611     2614
        1        1        1        1        0        0        0        0       20        0      258      324      325      334      335      364      365      374      375
     2597     2603     2632     2599     2705     2711     2740     2707     2600     2604     2634     2637
        1        1        1        1        0        0        0        0       20        0      259      324      329      330      325      364      369      370      365
     2598     2615     2601     2597     2706     2723     2709     2705     2600     2617     2620     2604
        1        1        1        1        0        0        0        0       20        0      260      323      328      329      324      363      368      369      364
     2594     2612     2598     2593     2702     2720     2706     2701     2596     2614     2617     2600
        1        1        1        1        0        0        0        0       20        0      261      325      330      331      332      365      370      371      372
     2601     2618     2621     2602     2709     2726     2729     2710     2604     2620     2624     2627
        1        1        1        1        0        0        0        0       20        0      262      325      332      333      334      365      372      373      374
     2602     2625     2628     2603     2710     2733     2736     2711     2604     2627     2631     2634
        1        1        1        1        0        0        0        0       20        0      263      326      338      339      327      366      378      379      367
     2606     2645     2609     2605     2714     2753     2717     2713     2607     2647     2650     2611
        1        1        1        1        0        0        0        0       20        0      264      327      339      345      347      367      379      385      387
     2609     2649     2663     2610     2717     2757     2771     2718     2611     2650     2664     2668
        1        1        1        1        0        0        0        0       20        0      265      327      347      352      328      367      387      392      368
     2610     2667     2613     2608     2718     2775     2721     2716     2611     2668     2678     2614
        1        1        1        1        0        0        0        0       20        0      266      328      352      354      329      368      392      394      369
     2613     2677     2616     2612     2721     2785     2724     2720     2614     2678     2682     2617
        1        1        1        1        0        0        0        0       20        0      267      329      354      355      330      369      394      395      370
     2616     2681     2619     2615     2724     2789     2727     2723     2617     2682     2683     2620
        1        1        1        1        0        0        0        0       20        0      268      330      355      341      331      370      395      381      371
     2619     2654     2622     2618     2727     2762     2730     2726     2620     2683     2655     2624
        1        1        1        1        0        0        0        0       20        0      269      331      341      340      342      371      381      380      382
     2622     2651     2652     2623     2730     2759     2760     2731     2624     2655     2653     2657
        1        1        1        1        0        0        0        0       20        0      270      331      342      359      332      371      382      399      372
     2623     2656     2626     2621     2731     2764     2734     2729     2624     2657     2691     2627
        1        1        1        1        0        0        0        0       20        0      271      332      359      360      333      372      399      400      373
     2626     2690     2630     2625     2734     2798     2738     2733     2627     2691     2692     2631
        1        1        1        1        0        0        0        0       20        0      272      333      360      356      358      373      400      396      398
     2630     2685     2684     2629     2738     2793     2792     2737     2631     2692     2686     2689
        1        1        1        1        0        0        0        0       20        0      273      333      358      357      334      373      398      397      374
     2629     2687     2633     2628     2737     2795     2741     2736     2631     2689     2688     2634
        1        1        1        1        0        0        0        0       20        0      274      334      357      353      335      374      397      393      375
     2633     2679     2636     2632     2741     2787     2744     2740     2634     2688     2680     2637
        1        1        1        1        0        0        0        0       20        0      275      335      353      351      336      375      393      391      376
     2636     2675     2640     2635     2744     2783     2748     2743     2637     2680     2676     2641
        1        1        1        1        0        0        0        0       20        0      276      336      351      348      349      376      391      388      389
     2640     2670     2669     2639     2748     2778     2777     2747     2641     2676     2671     2673
        1        1        1        1        0        0        0        0       20        0      277      336      349      350      337      376      389      390      377
     2639     2672     2643     2638     2747     2780     2751     2746     2641     2673     2674     2644
        1        1        1        1        0        0        0        0       20        0      278      337      350      346      338      377      390      386      378
     2643     2665     2646     2642     2751     2773     2754     2750     2644     2674     2666     2647
        1        1        1        1        0        0        0        0       20        0      279      338      346      344      339      378      386      384      379
     2646     2661     2648     2645     2754     2769     2756     2753     2647     2666     2662     2650
        1        1        1        1        0        0        0        0       20        0      280      339      344      343      345      379      384      383      385
     2648     2658     2659     2649     2756     2766     2767     2757     2650     2662     2660     2664
        1        1        1        1        0        0        0        0       20        0      281      361      377      378      366      401      417      418      406
     2696     2750     2714     2695     2804     2858     2822     2803     2697     2752     2755     2715
        1        1        1        1        0        0        0        0       20        0      282      361      363      376      377      401      403      416      417
     2694     2703     2746     2696     2802     2811     2854     2804     2697     2704     2749     2752
        1        1        1        1        0        0        0        0       20        0      283      363      364      375      376      403      404      415      416
     2701     2707     2743     2703     2809     2815     2851     2811     2704     2708     2745     2749
        1        1        1        1        0        0        0        0       20        0      284      361      362      368      363      401      402      408      403
     2693     2699     2702     2694     2801     2807     2810     2802     2697     2700     2722     2704
        1        1        1        1        0        0        0        0       20        0      285      362      366      367      368      402      406      407      408
     2698     2713     2716     2699     2806     2821     2824     2807     2700     2715     2719     2722
        1        1        1        1        0        0        0        0       20        0      286      364      365      374      375      404      405      414      415
     2705     2711     2740     2707     2813     2819     2848     2815     2708     2712     2742     2745
        1        1        1        1        0        0        0        0       20        0      287      364      369      370      365      404      409      410      405
     2706     2723     2709     2705     2814     2831     2817     2813     2708     2725     2728     2712
        1        1        1        1        0        0        0        0       20        0      288      363      368      369      364      403      408      409      404
     2702     2720     2706     2701     2810     2828     2814     2809     2704     2722     2725     2708
        1        1        1        1        0        0        0        0       20        0      289      365      370      371      372      405      410      411      412
     2709     2726     2729     2710     2817     2834     2837     2818     2712     2728     2732     2735
        1        1        1        1        0        0        0        0       20        0      290      365      372      373      374      405      412      413      414
     2710     2733     2736     2711     2818     2841     2844     2819     2712     2735     2739     2742
        1        1        1        1        0        0        0        0       20        0      291      366      378      379      367      406      418      419      407
     2714     2753     2717     2713     2822     2861     2825     2821     2715     2755     2758     2719
        1        1        1        1        0        0        0        0       20        0      292      367      379      385      387      407      419      425      427
     2717     2757     2771     2718     2825     2865     2879     2826     2719     2758     2772     2776
        1        1        1        1        0        0        0        0       20        0      293      367      387      392      368      407      427      432      408
     2718     2775     2721     2716     2826     2883     2829     2824     2719     2776     2786     2722
        1        1        1        1        0        0        0        0       20        0      294      368      392      394      369      408      432      434      409
     2721     2785     2724     2720     2829     2893     2832     2828     2722     2786     2790     2725
        1        1        1        1        0        0        0        0       20        0      295      369      394      395      370      409      434      435      410
     2724     2789     2727     2723     2832     2897     2835     2831     2725     2790     2791     2728
        1        1        1        1        0        0        0        0       20        0      296      370      395      381      371      410      435      421      411
     2727     2762     2730     2726     2835     2870     2838     2834     2728     2791     2763     2732
        1        1        1        1        0        0        0        0       20        0      297      371      381      380      382      411      421      420      422
     2730     2759     2760     2731     2838     2867     2868     2839     2732     2763     2761     2765
        1        1        1        1        0        0        0        0       20        0      298      371      382      399      372      411      422      439      412
     2731     2764     2734     2729     2839     2872     2842     2837     2732     2765     2799     2735
        1        1        1        1        0        0        0        0       20        0      299      372      399      400      373      412      439      440      413
     2734     2798     2738     2733     2842     2906     2846     2841     2735     2799     2800     2739
        1        1        1        1        0        0        0        0       20        0      300      373      400      396      398      413      440      436      438
     2738     2793     2792     2737     2846     2901     2900     2845     2739     2800     2794     2797
        1        1        1        1        0        0        0        0       20        0      301      373      398      397      374      413      438      437      414
     2737     2795     2741     2736     2845     2903     2849     2844     2739     2797     2796     2742
        1        1        1        1        0        0        0        0       20        0      302      374      397      393      375      414      437      433      415
     2741     2787     2744     2740     2849     2895     2852     2848     2742     2796     2788     2745
        1        1        1        1        0        0        0        0       20        0      303      375      393      391      376      415      433      431      416
     2744     2783     2748     2743     2852     2891     2856     2851     2745     2788     2784     2749
        1        1        1        1        0        0        0        0       20        0      304      376      391      388      389      416      431      428      429
     2748     2778     2777     2747     2856     2886     2885     2855     2749     2784     2779     2781
        1        1        1        1        0        0        0        0       20        0      305      376      389      390      377      416      429      430      417
     2747     2780     2751     2746     2855     2888     2859     2854     2749     2781     2782     2752
        1        1        1        1        0        0        0        0       20        0      306      377      390      386      378      417      430      426      418
     2751     2773     2754     2750     2859     2881     2862     2858     2752     2782     2774     2755
        1        1        1        1        0        0        0        0       20        0      307      378      386      384      379      418      426      424      419
     2754     2769     2756     2753     2862     2877     2864     2861     2755     2774     2770     2758
        1        1        1        1        0        0        0        0       20        0      308      379      384      383      385      419      424      423      425
     2756     2766     2767     2757     2864     2874     2875     2865     2758     2770     2768     2772
        1        1        1        1        0        0        0        0       20        0      309      401      417      418      406      441      457      458      446
     2804     2858     2822     2803     2912     2966     2930     2911     2805     2860     2863     2823
        1        1        1        1        0        0        0        0       20        0      310      401      403      416      417      441      443      456      457
     2802     2811     2854     2804     2910     2919     2962     2912     2805     2812     2857     2860
        1        1        1        1        0        0        0        0       20        0      311      403      404      415      416      443      444      455      456
     2809     2815     2851     2811     2917     2923     2959     2919     2812     2816     2853     2857
        1        1        1        1        0        0        0        0       20        0      312      401      402      408      403      441      442      448      443
     2801     2807     2810     2802     2909     2915     2918     2910     2805     2808     2830     2812
        1        1        1        1        0        0        0        0       20        0      313      402      406      407      408      442      446      447      448
     2806     2821     2824     2807     2914     2929     2932     2915     2808     2823     2827     2830
        1        1        1        1        0        0        0        0       20        0      314      404      405      414      415      444      445      454      455
     2813     2819     2848     2815     2921     2927     2956     2923     2816     2820     2850     2853
        1        1        1        1        0        0        0        0       20        0      315      404      409      410      405      444      449      450      445
     2814     2831     2817     2813     2922     2939     2925     2921     2816     2833     2836     2820
        1        1        1        1        0        0        0        0       20        0      316      403      408      409      404      443      448      449      444
     2810     2828     2814     2809     2918     2936     2922     2917     2812     2830     2833     2816
        1        1        1        1        0        0        0        0       20        0      317      405      410      411      412      445      450      451      452
     2817     2834     2837     2818     2925     2942     2945     2926     2820     2836     2840     2843
        1        1        1        1        0        0        0        0       20        0      318      405      412      413      414      445      452      453      454
     2818     2841     2844     2819     2926     2949     2952     2927     2820     2843     2847     2850
        1        1        1        1        0        0        0        0       20        0      319      406      418      419      407      446      458      459      447
     2822     2861     2825     2821     2930     2969     2933     2929     2823     2863     2866     2827
        1        1        1        1        0        0        0        0       20        0      320      407      419      425      427      447      459      465      467
     2825     2865     2879     2826     2933     2973     2987     2934     2827     2866     2880     2884
        1        1        1        1        0        0        0        0       20        0      321      407      427      432      408      447      467      472      448
     2826     2883     2829     2824     2934     2991     2937     2932     2827     2884     2894     2830
        1        1        1        1        0        0        0        0       20        0      322      408      432      434      409      448      472      474      449
     2829     2893     2832     2828     2937     3001     2940     2936     2830     2894     2898     2833
        1        1        1        1        0        0        0        0       20        0      323      409      434      435      410      449      474      475      450
     2832     2897     2835     2831     2940     3005     2943     2939     2833     2898     2899     2836
        1        1        1        1        0        0        0        0       20        0      324      410      435      421      411      450      475      461      451
     2835     2870     2838     2834     2943     2978     2946     2942     2836     2899     2871     2840
        1        1        1        1        0        0        0        0       20        0      325      411      421      420      422      451      461      460      462
     2838     2867     2868     2839     2946     2975     2976     2947     2840     2871     2869     2873
        1        1        1        1        0        0        0        0       20        0      326      411      422      439      412      451      462      479      452
     2839     2872     2842     2837     2947     2980     2950     2945     2840     2873     2907     2843
        1        1        1        1        0        0        0        0       20        0      327      412      439      440      413      452      479      480      453
     2842     2906     2846     2841     2950     3014     2954     2949     2843     2907     2908     2847
        1        1        1        1        0        0        0        0       20        0      328      413      440      436      438      453      480      476      478
     2846     2901     2900     2845     2954     3009     3008     2953     2847     2908     2902     2905
        1        1        1        1        0        0        0        0       20        0      329      413      438      437      414      453      478      477      454
     2845     2903     2849     2844     2953     3011     2957     2952     2847     2905     2904     2850
        1        1        1        1        0        0        0        0       20        0      330      414      437      433      415      454      477      473      455
     2849     2895     2852     2848     2957     3003     2960     2956     2850     2904     2896     2853
        1        1        1        1        0        0        0        0       20        0      331      415      433      431      416      455      473      471      456
     2852     2891     2856     2851     2960     2999     2964     2959     2853     2896     2892     2857
        1        1        1        1        0        0        0        0       20        0      332      416      431      428      429      456      471      468      469
     2856     2886     2885     2855     2964     2994     2993     2963     2857     2892     2887     2889
        1        1        1        1        0        0        0        0       20        0      333      416      429      430      417      456      469      470      457
     2855     2888     2859     2854     2963     2996     2967     2962     2857     2889     2890     2860
        1        1        1        1        0        0        0        0       20        0      334      417      430      426      418      457      470      466      458
     2859     2881     2862     2858     2967     2989     2970     2966     2860     2890     2882     2863
        1        1        1        1        0        0        0        0       20        0      335      418      426      424      419      458      466      464      459
     2862     2877     2864     2861     2970     2985     2972     2969     2863     2882     2878     2866
        1        1        1        1        0        0        0        0       20        0      336      419      424      423      425      459      464      463      465
     2864     2874     2875     2865     2972     2982     2983     2973     2866     2878     2876     2880
        1        1        1        1        0        0        0        0       20        0      337      441      457      458      446      481      497      498      486
     2912     2966     2930     2911     3020     3074     3038     3019     2913     2968     2971     2931
        1        1        1        1        0        0        0        0       20        0      338      441      443      456      457      481      483      496      497
     2910     2919     2962     2912     3018     3027     3070     3020     2913     2920     2965     2968
        1        1        1        1        0        0        0        0       20        0      339      443      444      455      456      483      484      495      496
     2917     2923     2959     2919     3025     3031     3067     3027     2920     2924     2961     2965
        1        1        1        1        0        0        0        0       20        0      340      441      442      448      443      481      482      488      483
     2909     2915     2918     2910     3017     3023     3026     3018     2913     2916     2938     2920
        1        1        1        1        0        0        0        0       20        0      341      442      446      447      448      482      486      487      488
     2914     2929     2932     2915     3022     3037     3040     3023     2916     2931     2935     2938
        1        1        1        1        0        0        0        0       20        0      342      444      445      454      455      484      485      494      495
     2921     2927     2956     2923     3029     3035     3064     3031     2924     2928     2958     2961
        1        1        1        1        0        0        0        0       20        0      343      444      449      450      445      484      489      490      485
     2922     2939     2925     2921     3030     3047     3033     3029     2924     2941     2944     2928
        1        1        1        1        0        0        0        0       20        0      344      443      448      449      444      483      488      489      484
     2918     2936     2922     2917     3026     3044     3030     3025     2920     2938     2941     2924
        1        1        1        1        0        0        0        0       20        0      345      445      450      451      452      485      490      491      492
     2925     2942     2945     2926     3033     3050     3053     3034     2928     2944     2948     2951
        1        1        1        1        0        0        0        0       20        0      346      445      452      453      454      485      492      493      494
     2926     2949     2952     2927     3034     3057     3060     3035     2928     2951     2955     2958
        1        1        1        1        0        0        0        0       20        0      347      446      458      459      447      486      498      499      487
     2930     2969     2933     2929     3038     3077     3041     3037     2931     2971     2974     2935
        1        1        1        1        0        0        0        0       20        0      348      447      459      465      467      487      499      505      507
     2933     2973     2987     2934     3041     3081     3095     3042     2935     2974     2988     2992
        1        1        1        1        0        0        0        0       20        0      349      447      467      472      448      487      507      512      488
     2934     2991     2937     2932     3042     3099     3045     3040     2935     2992     3002     2938
        1        1        1        1        0        0        0        0       20        0      350      448      472      474      449      488      512      514      489
     2937     3001     2940     2936     3045     3109     3048     3044     2938     3002     3006     2941
        1        1        1        1        0        0        0        0       20        0      351      449      474      475      450      489      514      515      490
     2940     3005     2943     2939     3048     3113     3051     3047     2941     3006     3007     2944
        1        1        1        1        0        0        0        0       20        0      352      450      475      461      451      490      515      501      491
     2943     2978     2946     2942     3051     3086     3054     3050     2944     3007     2979     2948
        1        1        1        1        0        0        0        0       20        0      353      451      461      460      462      491      501      500      502
     2946     2975     2976     2947     3054     3083     3084     3055     2948     2979     2977     2981
        1        1        1        1        0        0        0        0       20        0      354      451      462      479      452      491      502      519      492
     2947     2980     2950     2945     3055     3088     3058     3053     2948     2981     3015     2951
        1        1        1        1        0        0        0        0       20        0      355      452      479      480      453      492      519      520      493
     2950     3014     2954     2949     3058     3122     3062     3057     2951     3015     3016     2955
        1        1        1        1        0        0        0        0       20        0      356      453      480      476      478      493      520      516      518
     2954     3009     3008     2953     3062     3117     3116     3061     2955     3016     3010     3013
        1        1        1        1        0        0        0        0       20        0      357      453      478      477      454      493      518      517      494
     2953     3011     2957     2952     3061     3119     3065     3060     2955     3013     3012     2958
        1        1        1        1        0        0        0        0       20        0      358      454      477      473      455      494      517      513      495
     2957     3003     2960     2956     3065     3111     3068     3064     2958     3012     3004     2961
        1        1        1        1        0        0        0        0       20        0      359      455      473      471      456      495      513      511      496
     2960     2999     2964     2959     3068     3107     3072     3067     2961     3004     3000     2965
        1        1        1        1        0        0        0        0       20        0      360      456      471      468      469      496      511      508      509
     2964     2994     2993     2963     3072     3102     3101     3071     2965     3000     2995     2997
        1        1        1        1        0        0        0        0       20        0      361      456      469      470      457      496      509      510      497
     2963     2996     2967     2962     3071     3104     3075     3070     2965     2997     2998     2968
        1        1        1        1        0        0        0        0       20        0      362      457      470      466      458      497      510      506      498
     2967     2989     2970     2966     3075     3097     3078     3074     2968     2998     2990     2971
        1        1        1        1        0        0        0        0       20        0      363      458      466      464      459      498      506      504      499
     2970     2985     2972     2969     3078     3093     3080     3077     2971     2990     2986     2974
        1        1        1        1        0        0        0        0       20        0      364      459      464      463      465      499      504      503      505
     2972     2982     2983     2973     3080     3090     3091     3081     2974     2986     2984     2988
        1        1        1        1        0        0        0        0       20        0      365      481      497      498      486      521      537      538      526
     3020     3074     3038     3019     3128     3182     3146     3127     3021     3076     3079     3039
        1        1        1        1        0        0        0        0       20        0      366      481      483      496      497      521      523      536      537
     3018     3027     3070     3020     3126     3135     3178     3128     3021     3028     3073     3076
        1        1        1        1        0        0        0        0       20        0      367      483      484      495      496      523      524      535      536
     3025     3031     3067     3027     3133     3139     3175     3135     3028     3032     3069     3073
        1        1        1        1        0        0        0        0       20        0      368      481      482      488      483      521      522      528      523
     3017     3023     3026     3018     3125     3131     3134     3126     3021     3024     3046     3028
        1        1        1        1        0        0        0        0       20        0      369      482      486      487      488      522      526      527      528
     3022     3037     3040     3023     3130     3145     3148     3131     3024     3039     3043     3046
        1        1        1        1        0        0        0        0       20        0      370      484      485      494      495      524      525      534      535
     3029     3035     3064     3031     3137     3143     3172     3139     3032     3036     3066     3069
        1        1        1        1        0        0        0        0       20        0      371      484      489      490      485      524      529      530      525
     3030     3047     3033     3029     3138     3155     3141     3137     3032     3049     3052     3036
        1        1        1        1        0        0        0        0       20        0      372      483      488      489      484      523      528      529      524
     3026     3044     3030     3025     3134     3152     3138     3133     3028     3046     3049     3032
        1        1        1        1        0        0        0        0       20        0      373      485      490      491      492      525      530      531      532
     3033     3050     3053     3034     3141     3158     3161     3142     3036     3052     3056     3059
        1        1        1        1        0        0        0        0       20        0      374      485      492      493      494      525      532      533      534
     3034     3057     3060     3035     3142     3165     3168     3143     3036     3059     3063     3066
        1        1        1        1        0        0        0        0       20        0      375      486      498      499      487      526      538      539      527
     3038     3077     3041     3037     3146     3185     3149     3145     3039     3079     3082     3043
        1        1        1        1        0        0        0        0       20        0      376      487      499      505      507      527      539      545      547
     3041     3081     3095     3042     3149     3189     3203     3150     3043     3082     3096     3100
        1        1        1        1        0        0        0        0       20        0      377      487      507      512      488      527      547      552      528
     3042     3099     3045     3040     3150     3207     3153     3148     3043     3100     3110     3046
        1        1        1        1        0        0        0        0       20        0      378      488      512      514      489      528      552      554      529
     3045     3109     3048     3044     3153     3217     3156     3152     3046     3110     3114     3049
        1        1        1        1        0        0        0        0       20        0      379      489      514      515      490      529      554      555      530
     3048     3113     3051     3047     3156     3221     3159     3155     3049     3114     3115     3052
        1        1        1        1        0        0        0        0       20        0      380      490      515      501      491      530      555      541      531
     3051     3086     3054     3050     3159     3194     3162     3158     3052     3115     3087     3056
        1        1        1        1        0        0        0        0       20        0      381      491      501      500      502      531      541      540      542
     3054     3083     3084     3055     3162     3191     3192     3163     3056     3087     3085     3089
        1        1        1        1        0        0        0        0       20        0      382      491      502      519      492      531      542      559      532
     3055     3088     3058     3053     3163     3196     3166     3161     3056     3089     3123     3059
        1        1        1        1        0        0        0        0       20        0      383      492      519      520      493      532      559      560      533
     3058     3122     3062     3057     3166     3230     3170     3165     3059     3123     3124     3063
        1        1        1        1        0        0        0        0       20        0      384      493      520      516      518      533      560      556      558
     3062     3117     3116     3061     3170     3225     3224     3169     3063     3124     3118     3121
        1        1        1        1        0        0        0        0       20        0      385      493      518      517      494      533      558      557      534
     3061     3119     3065     3060     3169     3227     3173     3168     3063     3121     3120     3066
        1        1        1        1        0        0        0        0       20        0      386      494      517      513      495      534      557      553      535
     3065     3111     3068     3064     3173     3219     3176     3172     3066     3120     3112     3069
        1        1        1        1        0        0        0        0       20        0      387      495      513      511      496      535      553      551      536
     3068     3107     3072     3067     3176     3215     3180     3175     3069     3112     3108     3073
        1        1        1        1        0        0        0        0       20        0      388      496      511      508      509      536      551      548      549
     3072     3102     3101     3071     3180     3210     3209     3179     3073     3108     3103     3105
        1        1        1        1        0        0        0        0       20        0      389      496      509      510      497      536      549      550      537
     3071     3104     3075     3070     3179     3212     3183     3178     3073     3105     3106     3076
        1        1        1        1        0        0        0        0       20        0      390      497      510      506      498      537      550      546      538
     3075     3097     3078     3074     3183     3205     3186     3182     3076     3106     3098     3079
        1        1        1        1        0        0        0        0       20        0      391      498      506      504      499      538      546      544      539
     3078     3093     3080     3077     3186     3201     3188     3185     3079     3098     3094     3082
        1        1        1        1        0        0        0        0       20        0      392      499      504      503      505      539      544      543      545
     3080     3090     3091     3081     3188     3198     3199     3189     3082     3094     3092     3096
        1        1        1        1        0        0        0        0       20        0      393      521      537      538      526      561      577      578      566
     3128     3182     3146     3127     3236     3290     3254     3235     3129     3184     3187     3147
        1        1        1        1        0        0        0        0       20        0      394      521      523      536      537      561      563      576      577
     3126     3135     3178     3128     3234     3243     3286     3236     3129     3136     3181     3184
        1        1        1        1        0        0        0        0       20        0      395      523      524      535      536      563      564      575      576
     3133     3139     3175     3135     3241     3247     3283     3243     3136     3140     3177     3181
        1        1        1        1        0        0        0        0       20        0      396      521      522      528      523      561      562      568      563
     3125     3131     3134     3126     3233     3239     3242     3234     3129     3132     3154     3136
        1        1        1        1        0        0        0        0       20        0      397      522      526      527      528      562      566      567      568
     3130     3145     3148     3131     3238     3253     3256     3239     3132     3147     3151     3154
        1        1        1        1        0        0        0        0       20        0      398      524      525      534      535      564      565      574      575
     3137     3143     3172     3139     3245     3251     3280     3247     3140     3144     3174     3177
        1        1        1        1        0        0        0        0       20        0      399      524      529      530      525      564      569      570      565
     3138     3155     3141     3137     3246     3263     3249     3245     3140     3157     3160     3144
        1        1        1        1        0        0        0        0       20        0      400      523      528      529      524      563      568      569      564
     3134     3152     3138     3133     3242     3260     3246     3241     3136     3154     3157     3140
        1        1        1        1        0        0        0        0       20        0      401      525      530      531      532      565      570      571      572
     3141     3158     3161     3142     3249     3266     3269     3250     3144     3160     3164     3167
        1        1        1        1        0        0        0        0       20        0      402      525      532      533      534      565      572      573      574
     3142     3165     3168     3143     3250     3273     3276     3251     3144     3167     3171     3174
        1        1        1        1        0        0        0        0       20        0      403      526      538      539      527      566      578      579      567
     3146     3185     3149     3145     3254     3293     3257     3253     3147     3187     3190     3151
        1        1        1        1        0        0        0        0       20        0      404      527      539      545      547      567      579      585      587
     3149     3189     3203     3150     3257     3297     3311     3258     3151     3190     3204     3208
        1        1        1        1        0        0        0        0       20        0      405      527      547      552      528      567      587      592      568
     3150     3207     3153     3148     3258     3315     3261     3256     3151     3208     3218     3154
        1        1        1        1        0        0        0        0       20        0      406      528      552      554      529      568      592      594      569
     3153     3217     3156     3152     3261     3325     3264     3260     3154     3218     3222     3157
        1        1        1        1        0        0        0        0       20        0      407      529      554      555      530      569      594      595      570
     3156     3221     3159     3155     3264     3329     3267     3263     3157     3222     3223     3160
        1        1        1        1        0        0        0        0       20        0      408      530      555      541      531      570      595      581      571
     3159     3194     3162     3158     3267     3302     3270     3266     3160     3223     3195     3164
        1        1        1        1        0        0        0        0       20        0      409      531      541      540      542      571      581      580      582
     3162     3191     3192     3163     3270     3299     3300     3271     3164     3195     3193     3197
        1        1        1        1        0        0        0        0       20        0      410      531      542      559      532      571      582      599      572
     3163     3196     3166     3161     3271     3304     3274     3269     3164     3197     3231     3167
        1        1        1        1        0        0        0        0       20        0      411      532      559      560      533      572      599      600      573
     3166     3230     3170     3165     3274     3338     3278     3273     3167     3231     3232     3171
        1        1        1        1        0        0        0        0       20        0      412      533      560      556      558      573      600      596      598
     3170     3225     3224     3169     3278     3333     3332     3277     3171     3232     3226     3229
        1        1        1        1        0        0        0        0       20        0      413      533      558      557      534      573      598      597      574
     3169     3227     3173     3168     3277     3335     3281     3276     3171     3229     3228     3174
        1        1        1        1        0        0        0        0       20        0      414      534      557      553      535      574      597      593      575
     3173     3219     3176     3172     3281     3327     3284     3280     3174     3228     3220     3177
        1        1        1        1        0        0        0        0       20        0      415      535      553      551      536      575      593      591      576
     3176     3215     3180     3175     3284     3323     3288     3283     3177     3220     3216     3181
        1        1        1        1        0        0        0        0       20        0      416      536      551      548      549      576      591      588      589
     3180     3210     3209     3179     3288     3318     3317     3287     3181     3216     3211     3213
        1        1        1        1        0        0        0        0       20        0      417      536      549      550      537      576      589      590      577
     3179     3212     3183     3178     3287     3320     3291     3286     3181     3213     3214     3184
        1        1        1        1        0        0        0        0       20        0      418      537      550      546      538      577      590      586      578
     3183     3205     3186     3182     3291     3313     3294     3290     3184     3214     3206     3187
        1        1        1        1        0        0        0        0       20        0      419      538      546      544      539      578      586      584      579
     3186     3201     3188     3185     3294     3309     3296     3293     3187     3206     3202     3190
        1        1        1        1        0        0        0        0       20        0      420      539      544      543      545      579      584      583      585
     3188     3198     3199     3189     3296     3306     3307     3297     3190     3202     3200     3204
        1        1        1        1        0        0        0        0       20        0      421      561      577      578      566      601      617      618      606
     3236     3290     3254     3235     3344     3398     3362     3343     3237     3292     3295     3255
        1        1        1        1        0        0        0        0       20        0      422      561      563      576      577      601      603      616      617
     3234     3243     3286     3236     3342     3351     3394     3344     3237     3244     3289     3292
        1        1        1        1        0        0        0        0       20        0      423      563      564      575      576      603      604      615      616
     3241     3247     3283     3243     3349     3355     3391     3351     3244     3248     3285     3289
        1        1        1        1        0        0        0        0       20        0      424      561      562      568      563      601      602      608      603
     3233     3239     3242     3234     3341     3347     3350     3342     3237     3240     3262     3244
        1        1        1        1        0        0        0        0       20        0      425      562      566      567      568      602      606      607      608
     3238     3253     3256     3239     3346     3361     3364     3347     3240     3255     3259     3262
        1        1        1        1        0        0        0        0       20        0      426      564      565      574      575      604      605      614      615
     3245     3251     3280     3247     3353     3359     3388     3355     3248     3252     3282     3285
        1        1        1        1        0        0        0        0       20        0      427      564      569      570      565      604      609      610      605
     3246     3263     3249     3245     3354     3371     3357     3353     3248     3265     3268     3252
        1        1        1        1        0        0        0        0       20        0      428      563      568      569      564      603      608      609      604
     3242     3260     3246     3241     3350     3368     3354     3349     3244     3262     3265     3248
        1        1        1        1        0        0        0        0       20        0      429      565      570      571      572      605      610      611      612
     3249     3266     3269     3250     3357     3374     3377     3358     3252     3268     3272     3275
        1        1        1        1        0        0        0        0       20        0      430      565      572      573      574      605      612      613      614
     3250     3273     3276     3251     3358     3381     3384     3359     3252     3275     3279     3282
        1        1        1        1        0        0        0        0       20        0      431      566      578      579      567      606      618      619      607
     3254     3293     3257     3253     3362     3401     3365     3361     3255     3295     3298     3259
        1        1        1        1        0        0        0        0       20        0      432      567      579      585      587      607      619      625      627
     3257     3297     3311     3258     3365     3405     3419     3366     3259     3298     3312     3316
        1        1        1        1        0        0        0        0       20        0      433      567      587      592      568      607      627      632      608
     3258     3315     3261     3256     3366     3423     3369     3364     3259     3316     3326     3262
        1        1        1        1        0        0        0        0       20        0      434      568      592      594      569      608      632      634      609
     3261     3325     3264     3260     3369     3433     3372     3368     3262     3326     3330     3265
        1        1        1        1        0        0        0        0       20        0      435      569      594      595      570      609      634      635      610
     3264     3329     3267     3263     3372     3437     3375     3371     3265     3330     3331     3268
        1        1        1        1        0        0        0        0       20        0      436      570      595      581      571      610      635      621      611
     3267     3302     3270     3266     3375     3410     3378     3374     3268     3331     3303     3272
        1        1        1        1        0        0        0        0       20        0      437      571      581      580      582      611      621      620      622
     3270     3299     3300     3271     3378     3407     3408     3379     3272     3303     3301     3305
        1        1        1        1        0        0        0        0       20        0      438      571      582      599      572      611      622      639      612
     3271     3304     3274     3269     3379     3412     3382     3377     3272     3305     3339     3275
        1        1        1        1        0        0        0        0       20        0      439      572      599      600      573      612      639      640      613
     3274     3338     3278     3273     3382     3446     3386     3381     3275     3339     3340     3279
        1        1        1        1        0        0        0        0       20        0      440      573      600      596      598      613      640      636      638
     3278     3333     3332     3277     3386     3441     3440     3385     3279     3340     3334     3337
        1        1        1        1        0        0        0        0       20        0      441      573      598      597      574      613      638      637      614
     3277     3335     3281     3276     3385     3443     3389     3384     3279     3337     3336     3282
        1        1        1        1        0        0        0        0       20        0      442      574      597      593      575      614      637      633      615
     3281     3327     3284     3280     3389     3435     3392     3388     3282     3336     3328     3285
        1        1        1        1        0        0        0        0       20        0      443      575      593      591      576      615      633      631      616
     3284     3323     3288     3283     3392     3431     3396     3391     3285     3328     3324     3289
        1        1        1        1        0        0        0        0       20        0      444      576      591      588      589      616      631      628      629
     3288     3318     3317     3287     3396     3426     3425     3395     3289     3324     3319     3321
        1        1        1        1        0        0        0        0       20        0      445      576      589      590      577      616      629      630      617
     3287     3320     3291     3286     3395     3428     3399     3394     3289     3321     3322     3292
        1        1        1        1        0        0        0        0       20        0      446      577      590      586      578      617      630      626      618
     3291     3313     3294     3290     3399     3421     3402     3398     3292     3322     3314     3295
        1        1        1        1        0        0        0        0       20        0      447      578      586      584      579      618      626      624      619
     3294     3309     3296     3293     3402     3417     3404     3401     3295     3314     3310     3298
        1        1        1        1        0        0        0        0       20        0      448      579      584      583      585      619      624      623      625
     3296     3306     3307     3297     3404     3414     3415     3405     3298     3310     3308     3312
        1        1        1        1        0        0        0        0       20        0      449      601      617      618      606      641      657      658      646
     3344     3398     3362     3343     3452     3506     3470     3451     3345     3400     3403     3363
        1        1        1        1        0        0        0        0       20        0      450      601      603      616      617      641      643      656      657
     3342     3351     3394     3344     3450     3459     3502     3452     3345     3352     3397     3400
        1        1        1        1        0        0        0        0       20        0      451      603      604      615      616      643      644      655      656
     3349     3355     3391     3351     3457     3463     3499     3459     3352     3356     3393     3397
        1        1        1        1        0        0        0        0       20        0      452      601      602      608      603      641      642      648      643
     3341     3347     3350     3342     3449     3455     3458     3450     3345     3348     3370     3352
        1        1        1        1        0        0        0        0       20        0      453      602      606      607      608      642      646      647      648
     3346     3361     3364     3347     3454     3469     3472     3455     3348     3363     3367     3370
        1        1        1        1        0        0        0        0       20        0      454      604      605      614      615      644      645      654      655
     3353     3359     3388     3355     3461     3467     3496     3463     3356     3360     3390     3393
        1        1        1        1        0        0        0        0       20        0      455      604      609      610      605      644      649      650      645
     3354     3371     3357     3353     3462     3479     3465     3461     3356     3373     3376     3360
        1        1        1        1        0        0        0        0       20        0      456      603      608      609      604      643      648      649      644
     3350     3368     3354     3349     3458     3476     3462     3457     3352     3370     3373     3356
        1        1        1        1        0        0        0        0       20        0      457      605      610      611      612      645      650      651      652
     3357     3374     3377     3358     3465     3482     3485     3466     3360     3376     3380     3383
        1        1        1        1        0        0        0        0       20        0      458      605      612      613      614      645      652      653      654
     3358     3381     3384     3359     3466     3489     3492     3467     3360     3383     3387     3390
        1        1        1        1        0        0        0        0       20        0      459      606      618      619      607      646      658      659      647
     3362     3401     3365     3361     3470     3509     3473     3469     3363     3403     3406     3367
        1        1        1        1        0        0        0        0       20        0      460      607      619      625      627      647      659      665      667
     3365     3405     3419     3366     3473     3513     3527     3474     3367     3406     3420     3424
        1        1        1        1        0        0        0        0       20        0      461      607      627      632      608      647      667      672      648
     3366     3423     3369     3364     3474     3531     3477     3472     3367     3424     3434     3370
        1        1        1        1        0        0        0        0       20        0      462      608      632      634      609      648      672      674      649
     3369     3433     3372     3368     3477     3541     3480     3476     3370     3434     3438     3373
        1        1        1        1        0        0        0        0       20        0      463      609      634      635      610      649      674      675      650
     3372     3437     3375     3371     3480     3545     3483     3479     3373     3438     3439     3376
        1        1        1        1        0        0        0        0       20        0      464      610      635      621      611      650      675      661      651
     3375     3410     3378     3374     3483     3518     3486     3482     3376     3439     3411     3380
        1        1        1        1        0        0        0        0       20        0      465      611      621      620      622      651      661      660      662
     3378     3407     3408     3379     3486     3515     3516     3487     3380     3411     3409     3413
        1        1        1        1        0        0        0        0       20        0      466      611      622      639      612      651      662      679      652
     3379     3412     3382     3377     3487     3520     3490     3485     3380     3413     3447     3383
        1        1        1        1        0        0        0        0       20        0      467      612      639      640      613      652      679      680      653
     3382     3446     3386     3381     3490     3554     3494     3489     3383     3447     3448     3387
        1        1        1        1        0        0        0        0       20        0      468      613      640      636      638      653      680      676      678
     3386     3441     3440     3385     3494     3549     3548     3493     3387     3448     3442     3445
        1        1        1        1        0        0        0        0       20        0      469      613      638      637      614      653      678      677      654
     3385     3443     3389     3384     3493     3551     3497     3492     3387     3445     3444     3390
        1        1        1        1        0        0        0        0       20        0      470      614      637      633      615      654      677      673      655
     3389     3435     3392     3388     3497     3543     3500     3496     3390     3444     3436     3393
        1        1        1        1        0        0        0        0       20        0      471      615      633      631      616      655      673      671      656
     3392     3431     3396     3391     3500     3539     3504     3499     3393     3436     3432     3397
        1        1        1        1        0        0        0        0       20        0      472      616      631      628      629      656      671      668      669
     3396     3426     3425     3395     3504     3534     3533     3503     3397     3432     3427     3429
        1        1        1        1        0        0        0        0       20        0      473      616      629      630      617      656      669      670      657
     3395     3428     3399     3394     3503     3536     3507     3502     3397     3429     3430     3400
        1        1        1        1        0        0        0        0       20        0      474      617      630      626      618      657      670      666      658
     3399     3421     3402     3398     3507     3529     3510     3506     3400     3430     3422     3403
        1        1        1        1        0        0        0        0       20        0      475      618      626      624      619      658      666      664      659
     3402     3417     3404     3401     3510     3525     3512     3509     3403     3422     3418     3406
        1        1        1        1        0        0        0        0       20        0      476      619      624      623      625      659      664      663      665
     3404     3414     3415     3405     3512     3522     3523     3513     3406     3418     3416     3420
        1        1        1        1        0        0        0        0       20        0      477      641      657      658      646      681      697      698      686
     3452     3506     3470     3451     3560     3614     3578     3559     3453     3508     3511     3471
        1        1        1        1        0        0        0        0       20        0      478      641      643      656      657      681      683      696      697
     3450     3459     3502     3452     3558     3567     3610     3560     3453     3460     3505     3508
        1        1        1        1        0        0        0        0       20        0      479      643      644      655      656      683      684      695      696
     3457     3463     3499     3459     3565     3571     3607     3567     3460     3464     3501     3505
        1        1        1        1        0        0        0        0       20        0      480      641      642      648      643      681      682      688      683
     3449     3455     3458     3450     3557     3563     3566     3558     3453     3456     3478     3460
        1        1        1        1        0        0        0        0       20        0      481      642      646      647      648      682      686      687      688
     3454     3469     3472     3455     3562     3577     3580     3563     3456     3471     3475     3478
        1        1        1        1        0        0        0        0       20        0      482      644      645      654      655      684      685      694      695
     3461     3467     3496     3463     3569     3575     3604     3571     3464     3468     3498     3501
        1        1        1        1        0        0        0        0       20        0      483      644      649      650      645      684      689      690      685
     3462     3479     3465     3461     3570     3587     3573     3569     3464     3481     3484     3468
        1        1        1        1        0        0        0        0       20        0      484      643      648      649      644      683      688      689      684
     3458     3476     3462     3457     3566     3584     3570     3565     3460     3478     3481     3464
        1        1        1        1        0        0        0        0       20        0      485      645      650      651      652      685      690      691      692
     3465     3482     3485     3466     3573     3590     3593     3574     3468     3484     3488     3491
        1        1        1        1        0        0        0        0       20        0      486      645      652      653      654      685      692      693      694
     3466     3489     3492     3467     3574     3597     3600     3575     3468     3491     3495     3498
        1        1        1        1        0        0        0        0       20        0      487      646      658      659      647      686      698      699      687
     3470     3509     3473     3469     3578     3617     3581     3577     3471     3511     3514     3475
        1        1        1        1        0        0        0        0       20        0      488      647      659      665      667      687      699      705      707
     3473     3513     3527     3474     3581     3621     3635     3582     3475     3514     3528     3532
        1        1        1        1        0        0        0        0       20        0      489      647      667      672      648      687      707      712      688
     3474     3531     3477     3472     3582     3639     3585     3580     3475     3532     3542     3478
        1        1        1        1        0        0        0        0       20        0      490      648      672      674      649      688      712      714      689
     3477     3541     3480     3476     3585     3649     3588     3584     3478     3542     3546     3481
        1        1        1        1        0        0        0        0       20        0      491      649      674      675      650      689      714      715      690
     3480     3545     3483     3479     3588     3653     3591     3587     3481     3546     3547     3484
        1        1        1        1        0        0        0        0       20        0      492      650      675      661      651      690      715      701      691
     3483     3518     3486     3482     3591     3626     3594     3590     3484     3547     3519     3488
        1        1        1        1        0        0        0        0       20        0      493      651      661      660      662      691      701      700      702
     3486     3515     3516     3487     3594     3623     3624     3595     3488     3519     3517     3521
        1        1        1        1        0        0        0        0       20        0      494      651      662      679      652      691      702      719      692
     3487     3520     3490     3485     3595     3628     3598     3593     3488     3521     3555     3491
        1        1        1        1        0        0        0        0       20        0      495      652      679      680      653      692      719      720      693
     3490     3554     3494     3489     3598     3662     3602     3597     3491     3555     3556     3495
        1        1        1        1        0        0        0        0       20        0      496      653      680      676      678      693      720      716      718
     3494     3549     3548     3493     3602     3657     3656     3601     3495     3556     3550     3553
        1        1        1        1        0        0        0        0       20        0      497      653      678      677      654      693      718      717      694
     3493     3551     3497     3492     3601     3659     3605     3600     3495     3553     3552     3498
        1        1        1        1        0        0        0        0       20        0      498      654      677      673      655      694      717      713      695
     3497     3543     3500     3496     3605     3651     3608     3604     3498     3552     3544     3501
        1        1        1        1        0        0        0        0       20        0      499      655      673      671      656      695      713      711      696
     3500     3539     3504     3499     3608     3647     3612     3607     3501     3544     3540     3505
        1        1        1        1        0        0        0        0       20        0      500      656      671      668      669      696      711      708      709
     3504     3534     3533     3503     3612     3642     3641     3611     3505     3540     3535     3537
        1        1        1        1        0        0        0        0       20        0      501      656      669      670      657      696      709      710      697
     3503     3536     3507     3502     3611     3644     3615     3610     3505     3537     3538     3508
        1        1        1        1        0        0        0        0       20        0      502      657      670      666      658      697      710      706      698
     3507     3529     3510     3506     3615     3637     3618     3614     3508     3538     3530     3511
        1        1        1        1        0        0        0        0       20        0      503      658      666      664      659      698      706      704      699
     3510     3525     3512     3509     3618     3633     3620     3617     3511     3530     3526     3514
        1        1        1        1        0        0        0        0       20        0      504      659      664      663      665      699      704      703      705
     3512     3522     3523     3513     3620     3630     3631     3621     3514     3526     3524     3528
        1        1        1        1        0        0        0        0       20        0      505      681      697      698      686      721      737      738      726
     3560     3614     3578     3559     3668     3722     3686     3667     3561     3616     3619     3579
        1        1        1        1        0        0        0        0       20        0      506      681      683      696      697      721      723      736      737
     3558     3567     3610     3560     3666     3675     3718     3668     3561     3568     3613     3616
        1        1        1        1        0        0        0        0       20        0      507      683      684      695      696      723      724      735      736
     3565     3571     3607     3567     3673     3679     3715     3675     3568     3572     3609     3613
        1        1        1        1        0        0        0        0       20        0      508      681      682      688      683      721      722      728      723
     3557     3563     3566     3558     3665     3671     3674     3666     3561     3564     3586     3568
        1        1        1        1        0        0        0        0       20        0      509      682      686      687      688      722      726      727      728
     3562     3577     3580     3563     3670     3685     3688     3671     3564     3579     3583     3586
        1        1        1        1        0        0        0        0       20        0      510      684      685      694      695      724      725      734      735
     3569     3575     3604     3571     3677     3683     3712     3679     3572     3576     3606     3609
        1        1        1        1        0        0        0        0       20        0      511      684      689      690      685      724      729      730      725
     3570     3587     3573     3569     3678     3695     3681     3677     3572     3589     3592     3576
        1        1        1        1        0        0        0        0       20        0      512      683      688      689      684      723      728      729      724
     3566     3584     3570     3565     3674     3692     3678     3673     3568     3586     3589     3572
        1        1        1        1        0        0        0        0       20        0      513      685      690      691      692      725      730      731      732
     3573     3590     3593     3574     3681     3698     3701     3682     3576     3592     3596     3599
        1        1        1        1        0        0        0        0       20        0      514      685      692      693      694      725      732      733      734
     3574     3597     3600     3575     3682     3705     3708     3683     3576     3599     3603     3606
        1        1        1        1        0        0        0        0       20        0      515      686      698      699      687      726      738      739      727
     3578     3617     3581     3577     3686     3725     3689     3685     3579     3619     3622     3583
        1        1        1        1        0        0        0        0       20        0      516      687      699      705      707      727      739      745      747
     3581     3621     3635     3582     3689     3729     3743     3690     3583     3622     3636     3640
        1        1        1        1        0        0        0        0       20        0      517      687      707      712      688      727      747      752      728
     3582     3639     3585     3580     3690     3747     3693     3688     3583     3640     3650     3586
        1        1        1        1        0        0        0        0       20        0      518      688      712      714      689      728      752      754      729
     3585     3649     3588     3584     3693     3757     3696     3692     3586     3650     3654     3589
        1        1        1        1        0        0        0        0       20        0      519      689      714      715      690      729      754      755      730
     3588     3653     3591     3587     3696     3761     3699     3695     3589     3654     3655     3592
        1        1        1        1        0        0        0        0       20        0      520      690      715      701      691      730      755      741      731
     3591     3626     3594     3590     3699     3734     3702     3698     3592     3655     3627     3596
        1        1        1        1        0        0        0        0       20        0      521      691      701      700      702      731      741      740      742
     3594     3623     3624     3595     3702     3731     3732     3703     3596     3627     3625     3629
        1        1        1        1        0        0        0        0       20        0      522      691      702      719      692      731      742      759      732
     3595     3628     3598     3593     3703     3736     3706     3701     3596     3629     3663     3599
        1        1        1        1        0        0        0        0       20        0      523      692      719      720      693      732      759      760      733
     3598     3662     3602     3597     3706     3770     3710     3705     3599     3663     3664     3603
        1        1        1        1        0        0        0        0       20        0      524      693      720      716      718      733      760      756      758
     3602     3657     3656     3601     3710     3765     3764     3709     3603     3664     3658     3661
        1        1        1        1        0        0        0        0       20        0      525      693      718      717      694      733      758      757      734
     3601     3659     3605     3600     3709     3767     3713     3708     3603     3661     3660     3606
        1        1        1        1        0        0        0        0       20        0      526      694      717      713      695      734      757      753      735
     3605     3651     3608     3604     3713     3759     3716     3712     3606     3660     3652     3609
        1        1        1        1        0        0        0        0       20        0      527      695      713      711      696      735      753      751      736
     3608     3647     3612     3607     3716     3755     3720     3715     3609     3652     3648     3613
        1        1        1        1        0        0        0        0       20        0      528      696      711      708      709      736      751      748      749
     3612     3642     3641     3611     3720     3750     3749     3719     3613     3648     3643     3645
        1        1        1        1        0        0        0        0       20        0      529      696      709      710      697      736      749      750      737
     3611     3644     3615     3610     3719     3752     3723     3718     3613     3645     3646     3616
        1        1        1        1        0        0        0        0       20        0      530      697      710      706      698      737      750      746      738
     3615     3637     3618     3614     3723     3745     3726     3722     3616     3646     3638     3619
        1        1        1        1        0        0        0        0       20        0      531      698      706      704      699      738      746      744      739
     3618     3633     3620     3617     3726     3741     3728     3725     3619     3638     3634     3622
        1        1        1        1        0        0        0        0       20        0      532      699      704      703      705      739      744      743      745
     3620     3630     3631     3621     3728     3738     3739     3729     3622     3634     3632     3636
        1        1        1        1        0        0        0        0       20        0      533      721      737      738      726      761      777      778      766
     3668     3722     3686     3667     3776     3830     3794     3775     3669     3724     3727     3687
        1        1        1        1        0        0        0        0       20        0      534      721      723      736      737      761      763      776      777
     3666     3675     3718     3668     3774     3783     3826     3776     3669     3676     3721     3724
        1        1        1        1        0        0        0        0       20        0      535      723      724      735      736      763      764      775      776
     3673     3679     3715     3675     3781     3787     3823     3783     3676     3680     3717     3721
        1        1        1        1        0        0        0        0       20        0      536      721      722      728      723      761      762      768      763
     3665     3671     3674     3666     3773     3779     3782     3774     3669     3672     3694     3676
        1        1        1        1        0        0        0        0       20        0      537      722      726      727      728      762      766      767      768
     3670     3685     3688     3671     3778     3793     3796     3779     3672     3687     3691     3694
        1        1        1        1        0        0        0        0       20        0      538      724      725      734      735      764      765      774      775
     3677     3683     3712     3679     3785     3791     3820     3787     3680     3684     3714     3717
        1        1        1        1        0        0        0        0       20        0      539      724      729      730      725      764      769      770      765
     3678     3695     3681     3677     3786     3803     3789     3785     3680     3697     3700     3684
        1        1        1        1        0        0        0        0       20        0      540      723      728      729      724      763      768      769      764
     3674     3692     3678     3673     3782     3800     3786     3781     3676     3694     3697     3680
        1        1        1        1        0        0        0        0       20        0      541      725      730      731      732      765      770      771      772
     3681     3698     3701     3682     3789     3806     3809     3790     3684     3700     3704     3707
        1        1        1        1        0        0        0        0       20        0      542      725      732      733      734      765      772      773      774
     3682     3705     3708     3683     3790     3813     3816     3791     3684     3707     3711     3714
        1        1        1        1        0        0        0        0       20        0      543      726      738      739      727      766      778      779      767
     3686     3725     3689     3685     3794     3833     3797     3793     3687     3727     3730     3691
        1        1        1        1        0        0        0        0       20        0      544      727      739      745      747      767      779      785      787
     3689     3729     3743     3690     3797     3837     3851     3798     3691     3730     3744     3748
        1        1        1        1        0        0        0        0       20        0      545      727      747      752      728      767      787      792      768
     3690     3747     3693     3688     3798     3855     3801     3796     3691     3748     3758     3694
        1        1        1        1        0        0        0        0       20        0      546      728      752      754      729      768      792      794      769
     3693     3757     3696     3692     3801     3865     3804     3800     3694     3758     3762     3697
        1        1        1        1        0        0        0        0       20        0      547      729      754      755      730      769      794      795      770
     3696     3761     3699     3695     3804     3869     3807     3803     3697     3762     3763     3700
        1        1        1        1        0        0        0        0       20        0      548      730      755      741      731      770      795      781      771
     3699     3734     3702     3698     3807     3842     3810     3806     3700     3763     3735     3704
        1        1        1        1        0        0        0        0       20        0      549      731      741      740      742      771      781      780      782
     3702     3731     3732     3703     3810     3839     3840     3811     3704     3735     3733     3737
        1        1        1        1        0        0        0        0       20        0      550      731      742      759      732      771      782      799      772
     3703     3736     3706     3701     3811     3844     3814     3809     3704     3737     3771     3707
        1        1        1        1        0        0        0        0       20        0      551      732      759      760      733      772      799      800      773
     3706     3770     3710     3705     3814     3878     3818     3813     3707     3771     3772     3711
        1        1        1        1        0        0        0        0       20        0      552      733      760      756      758      773      800      796      798
     3710     3765     3764     3709     3818     3873     3872     3817     3711     3772     3766     3769
        1        1        1        1        0        0        0        0       20        0      553      733      758      757      734      773      798      797      774
     3709     3767     3713     3708     3817     3875     3821     3816     3711     3769     3768     3714
        1        1        1        1        0        0        0        0       20        0      554      734      757      753      735      774      797      793      775
     3713     3759     3716     3712     3821     3867     3824     3820     3714     3768     3760     3717
        1        1        1        1        0        0        0        0       20        0      555      735      753      751      736      775      793      791      776
     3716     3755     3720     3715     3824     3863     3828     3823     3717     3760     3756     3721
        1        1        1        1        0        0        0        0       20        0      556      736      751      748      749      776      791      788      789
     3720     3750     3749     3719     3828     3858     3857     3827     3721     3756     3751     3753
        1        1        1        1        0        0        0        0       20        0      557      736      749      750      737      776      789      790      777
     3719     3752     3723     3718     3827     3860     3831     3826     3721     3753     3754     3724
        1        1        1        1        0        0        0        0       20        0      558      737      750      746      738      777      790      786      778
     3723     3745     3726     3722     3831     3853     3834     3830     3724     3754     3746     3727
        1        1        1        1        0        0        0        0       20        0      559      738      746      744      739      778      786      784      779
     3726     3741     3728     3725     3834     3849     3836     3833     3727     3746     3742     3730
        1        1        1        1        0        0        0        0       20        0      560      739      744      743      745      779      784      783      785
     3728     3738     3739     3729     3836     3846     3847     3837     3730     3742     3740     3744
        1        1        1        1        0        0        0        0       20        0      561      761      777      778      766      801      817      818      806
     3776     3830     3794     3775     3884     3938     3902     3883     3777     3832     3835     3795
        1        1        1        1        0        0        0        0       20        0      562      761      763      776      777      801      803      816      817
     3774     3783     3826     3776     3882     3891     3934     3884     3777     3784     3829     3832
        1        1        1        1        0        0        0        0       20        0      563      763      764      775      776      803      804      815      816
     3781     3787     3823     3783     3889     3895     3931     3891     3784     3788     3825     3829
        1        1        1        1        0        0        0        0       20        0      564      761      762      768      763      801      802      808      803
     3773     3779     3782     3774     3881     3887     3890     3882     3777     3780     3802     3784
        1        1        1        1        0        0        0        0       20        0      565      762      766      767      768      802      806      807      808
     3778     3793     3796     3779     3886     3901     3904     3887     3780     3795     3799     3802
        1        1        1        1        0        0        0        0       20        0      566      764      765      774      775      804      805      814      815
     3785     3791     3820     3787     3893     3899     3928     3895     3788     3792     3822     3825
        1        1        1        1        0        0        0        0       20        0      567      764      769      770      765      804      809      810      805
     3786     3803     3789     3785     3894     3911     3897     3893     3788     3805     3808     3792
        1        1        1        1        0        0        0        0       20        0      568      763      768      769      764      803      808      809      804
     3782     3800     3786     3781     3890     3908     3894     3889     3784     3802     3805     3788
        1        1        1        1        0        0        0        0       20        0      569      765      770      771      772      805      810      811      812
     3789     3806     3809     3790     3897     3914     3917     3898     3792     3808     3812     3815
        1        1        1        1        0        0        0        0       20        0      570      765      772      773      774      805      812      813      814
     3790     3813     3816     3791     3898     3921     3924     3899     3792     3815     3819     3822
        1        1        1        1        0        0        0        0       20        0      571      766      778      779      767      806      818      819      807
     3794     3833     3797     3793     3902     3941     3905     3901     3795     3835     3838     3799
        1        1        1        1        0        0        0        0       20        0      572      767      779      785      787      807      819      825      827
     3797     3837     3851     3798     3905     3945     3959     3906     3799     3838     3852     3856
        1        1        1        1        0        0        0        0       20        0      573      767      787      792      768      807      827      832      808
     3798     3855     3801     3796     3906     3963     3909     3904     3799     3856     3866     3802
        1        1        1        1        0        0        0        0       20        0      574      768      792      794      769      808      832      834      809
     3801     3865     3804     3800     3909     3973     3912     3908     3802     3866     3870     3805
        1        1        1        1        0        0        0        0       20        0      575      769      794      795      770      809      834      835      810
     3804     3869     3807     3803     3912     3977     3915     3911     3805     3870     3871     3808
        1        1        1        1        0        0        0        0       20        0      576      770      795      781      771      810      835      821      811
     3807     3842     3810     3806     3915     3950     3918     3914     3808     3871     3843     3812
        1        1        1        1        0        0        0        0       20        0      577      771      781      780      782      811      821      820      822
     3810     3839     3840     3811     3918     3947     3948     3919     3812     3843     3841     3845
        1        1        1        1        0        0        0        0       20        0      578      771      782      799      772      811      822      839      812
     3811     3844     3814     3809     3919     3952     3922     3917     3812     3845     3879     3815
        1        1        1        1        0        0        0        0       20        0      579      772      799      800      773      812      839      840      813
     3814     3878     3818     3813     3922     3986     3926     3921     3815     3879     3880     3819
        1        1        1        1        0        0        0        0       20        0      580      773      800      796      798      813      840      836      838
     3818     3873     3872     3817     3926     3981     3980     3925     3819     3880     3874     3877
        1        1        1        1        0        0        0        0       20        0      581      773      798      797      774      813      838      837      814
     3817     3875     3821     3816     3925     3983     3929     3924     3819     3877     3876     3822
        1        1        1        1        0        0        0        0       20        0      582      774      797      793      775      814      837      833      815
     3821     3867     3824     3820     3929     3975     3932     3928     3822     3876     3868     3825
        1        1        1        1        0        0        0        0       20        0      583      775      793      791      776      815      833      831      816
     3824     3863     3828     3823     3932     3971     3936     3931     3825     3868     3864     3829
        1        1        1        1        0        0        0        0       20        0      584      776      791      788      789      816      831      828      829
     3828     3858     3857     3827     3936     3966     3965     3935     3829     3864     3859     3861
        1        1        1        1        0        0        0        0       20        0      585      776      789      790      777      816      829      830      817
     3827     3860     3831     3826     3935     3968     3939     3934     3829     3861     3862     3832
        1        1        1        1        0        0        0        0       20        0      586      777      790      786      778      817      830      826      818
     3831     3853     3834     3830     3939     3961     3942     3938     3832     3862     3854     3835
        1        1        1        1        0        0        0        0       20        0      587      778      786      784      779      818      826      824      819
     3834     3849     3836     3833     3942     3957     3944     3941     3835     3854     3850     3838
        1        1        1        1        0        0        0        0       20        0      588      779      784      783      785      819      824      823      825
     3836     3846     3847     3837     3944     3954     3955     3945     3838     3850     3848     3852
        1        1        1        1        0        0        0        0       20        0      589      801      817      818      806      841      857      858      846
     3884     3938     3902     3883     3992     4046     4010     3991     3885     3940     3943     3903
        1        1        1        1        0        0        0        0       20        0      590      801      803      816      817      841      843      856      857
     3882     3891     3934     3884     3990     3999     4042     3992     3885     3892     3937     3940
        1        1        1        1        0        0        0        0       20        0      591      803      804      815      816      843      844      855      856
     3889     3895     3931     3891     3997     4003     4039     3999     3892     3896     3933     3937
        1        1        1        1        0        0        0        0       20        0      592      801      802      808      803      841      842      848      843
     3881     3887     3890     3882     3989     3995     3998     3990     3885     3888     3910     3892
        1        1        1        1        0        0        0        0       20        0      593      802      806      807      808      842      846      847      848
     3886     3901     3904     3887     3994     4009     4012     3995     3888     3903     3907     3910
        1        1        1        1        0        0        0        0       20        0      594      804      805      814      815      844      845      854      855
     3893     3899     3928     3895     4001     4007     4036     4003     3896     3900     3930     3933
        1        1        1        1        0        0        0        0       20        0      595      804      809      810      805      844      849      850      845
     3894     3911     3897     3893     4002     4019     4005     4001     3896     3913     3916     3900
        1        1        1        1        0        0        0        0       20        0      596      803      808      809      804      843      848      849      844
     3890     3908     3894     3889     3998     4016     4002     3997     3892     3910     3913     3896
        1        1        1        1        0        0        0        0       20        0      597      805      810      811      812      845      850      851      852
     3897     3914     3917     3898     4005     4022     4025     4006     3900     3916     3920     3923
        1        1        1        1        0        0        0        0       20        0      598      805      812      813      814      845      852      853      854
     3898     3921     3924     3899     4006     4029     4032     4007     3900     3923     3927     3930
        1        1        1        1        0        0        0        0       20        0      599      806      818      819      807      846      858      859      847
     3902     3941     3905     3901     4010     4049     4013     4009     3903     3943     3946     3907
        1        1        1        1        0        0        0        0       20        0      600      807      819      825      827      847      859      865      867
     3905     3945     3959     3906     4013     4053     4067     4014     3907     3946     3960     3964
        1        1        1        1        0        0        0        0       20        0      601      807      827      832      808      847      867      872      848
     3906     3963     3909     3904     4014     4071     4017     4012     3907     3964     3974     3910
        1        1        1        1        0        0        0        0       20        0      602      808      832      834      809      848      872      874      849
     3909     3973     3912     3908     4017     4081     4020     4016     3910     3974     3978     3913
        1        1        1        1        0        0        0        0       20        0      603      809      834      835      810      849      874      875      850
     3912     3977     3915     3911     4020     4085     4023     4019     3913     3978     3979     3916
        1        1        1        1        0        0        0        0       20        0      604      810      835      821      811      850      875      861      851
     3915     3950     3918     3914     4023     4058     4026     4022     3916     3979     3951     3920
        1        1        1        1        0        0        0        0       20        0      605      811      821      820      822      851      861      860      862
     3918     3947     3948     3919     4026     4055     4056     4027     3920     3951     3949     3953
        1        1        1        1        0        0        0        0       20        0      606      811      822      839      812      851      862      879      852
     3919     3952     3922     3917     4027     4060     4030     4025     3920     3953     3987     3923
        1        1        1        1        0        0        0        0       20        0      607      812      839      840      813      852      879      880      853
     3922     3986     3926     3921     4030     4094     4034     4029     3923     3987     3988     3927
        1        1        1        1        0        0        0        0       20        0      608      813      840      836      838      853      880      876      878
     3926     3981     3980     3925     4034     4089     4088     4033     3927     3988     3982     3985
        1        1        1        1        0        0        0        0       20        0      609      813      838      837      814      853      878      877      854
     3925     3983     3929     3924     4033     4091     4037     4032     3927     3985     3984     3930
        1        1        1        1        0        0        0        0       20        0      610      814      837      833      815      854      877      873      855
     3929     3975     3932     3928     4037     4083     4040     4036     3930     3984     3976     3933
        1        1        1        1        0        0        0        0       20        0      611      815      833      831      816      855      873      871      856
     3932     3971     3936     3931     4040     4079     4044     4039     3933     3976     3972     3937
        1        1        1        1        0        0        0        0       20        0      612      816      831      828      829      856      871      868      869
     3936     3966     3965     3935     4044     4074     4073     4043     3937     3972     3967     3969
        1        1        1        1        0        0        0        0       20        0      613      816      829      830      817      856      869      870      857
     3935     3968     3939     3934     4043     4076     4047     4042     3937     3969     3970     3940
        1        1        1        1        0        0        0        0       20        0      614      817      830      826      818      857      870      866      858
     3939     3961     3942     3938     4047     4069     4050     4046     3940     3970     3962     3943
        1        1        1        1        0        0        0        0       20        0      615      818      826      824      819      858      866      864      859
     3942     3957     3944     3941     4050     4065     4052     4049     3943     3962     3958     3946
        1        1        1        1        0        0        0        0       20        0      616      819      824      823      825      859      864      863      865
     3944     3954     3955     3945     4052     4062     4063     4053     3946     3958     3956     3960
        1        1        1        1        0        0        0        0       20        0      617      841      857      858      846      881      897      898      886
     3992     4046     4010     3991     4100     4154     4118     4099     3993     4048     4051     4011
        1        1        1        1        0        0        0        0       20        0      618      841      843      856      857      881      883      896      897
     3990     3999     4042     3992     4098     4107     4150     4100     3993     4000     4045     4048
        1        1        1        1        0        0        0        0       20        0      619      843      844      855      856      883      884      895      896
     3997     4003     4039     3999     4105     4111     4147     4107     4000     4004     4041     4045
        1        1        1        1        0        0        0        0       20        0      620      841      842      848      843      881      882      888      883
     3989     3995     3998     3990     4097     4103     4106     4098     3993     3996     4018     4000
        1        1        1        1        0        0        0        0       20        0      621      842      846      847      848      882      886      887      888
     3994     4009     4012     3995     4102     4117     4120     4103     3996     4011     4015     4018
        1        1        1        1        0        0        0        0       20        0      622      844      845      854      855      884      885      894      895
     4001     4007     4036     4003     4109     4115     4144     4111     4004     4008     4038     4041
        1        1        1        1        0        0        0        0       20        0      623      844      849      850      845      884      889      890      885
     4002     4019     4005     4001     4110     4127     4113     4109     4004     4021     4024     4008
        1        1        1        1        0        0        0        0       20        0      624      843      848      849      844      883      888      889      884
     3998     4016     4002     3997     4106     4124     4110     4105     4000     4018     4021     4004
        1        1        1        1        0        0        0        0       20        0      625      845      850      851      852      885      890      891      892
     4005     4022     4025     4006     4113     4130     4133     4114     4008     4024     4028     4031
        1        1        1        1        0        0        0        0       20        0      626      845      852      853      854      885      892      893      894
     4006     4029     4032     4007     4114     4137     4140     4115     4008     4031     4035     4038
        1        1        1        1        0        0        0        0       20        0      627      846      858      859      847      886      898      899      887
     4010     4049     4013     4009     4118     4157     4121     4117     4011     4051     4054     4015
        1        1        1        1        0        0        0        0       20        0      628      847      859      865      867      887      899      905      907
     4013     4053     4067     4014     4121     4161     4175     4122     4015     4054     4068     4072
        1        1        1        1        0        0        0        0       20        0      629      847      867      872      848      887      907      912      888
     4014     4071     4017     4012     4122     4179     4125     4120     4015     4072     4082     4018
        1        1        1        1        0        0        0        0       20        0      630      848      872      874      849      888      912      914      889
     4017     4081     4020     4016     4125     4189     4128     4124     4018     4082     4086     4021
        1        1        1        1        0        0        0        0       20        0      631      849      874      875      850      889      914      915      890
     4020     4085     4023     4019     4128     4193     4131     4127     4021     4086     4087     4024
        1        1        1        1        0        0        0        0       20        0      632      850      875      861      851      890      915      901      891
     4023     4058     4026     4022     4131     4166     4134     4130     4024     4087     4059     4028
        1        1        1        1        0        0        0        0       20        0      633      851      861      860      862      891      901      900      902
     4026     4055     4056     4027     4134     4163     4164     4135     4028     4059     4057     4061
        1        1        1        1        0        0        0        0       20        0      634      851      862      879      852      891      902      919      892
     4027     4060     4030     4025     4135     4168     4138     4133     4028     4061     4095     4031
        1        1        1        1        0        0        0        0       20        0      635      852      879      880      853      892      919      920      893
     4030     4094     4034     4029     4138     4202     4142     4137     4031     4095     4096     4035
        1        1        1        1        0        0        0        0       20        0      636      853      880      876      878      893      920      916      918
     4034     4089     4088     4033     4142     4197     4196     4141     4035     4096     4090     4093
        1        1        1        1        0        0        0        0       20        0      637      853      878      877      854      893      918      917      894
     4033     4091     4037     4032     4141     4199     4145     4140     4035     4093     4092     4038
        1        1        1        1        0        0        0        0       20        0      638      854      877      873      855      894      917      913      895
     4037     4083     4040     4036     4145     4191     4148     4144     4038     4092     4084     4041
        1        1        1        1        0        0        0        0       20        0      639      855      873      871      856      895      913      911      896
     4040     4079     4044     4039     4148     4187     4152     4147     4041     4084     4080     4045
        1        1        1        1        0        0        0        0       20        0      640      856      871      868      869      896      911      908      909
     4044     4074     4073     4043     4152     4182     4181     4151     4045     4080     4075     4077
        1        1        1        1        0        0        0        0       20        0      641      856      869      870      857      896      909      910      897
     4043     4076     4047     4042     4151     4184     4155     4150     4045     4077     4078     4048
        1        1        1        1        0        0        0        0       20        0      642      857      870      866      858      897      910      906      898
     4047     4069     4050     4046     4155     4177     4158     4154     4048     4078     4070     4051
        1        1        1        1        0        0        0        0       20        0      643      858      866      864      859      898      906      904      899
     4050     4065     4052     4049     4158     4173     4160     4157     4051     4070     4066     4054
        1        1        1        1        0        0        0        0       20        0      644      859      864      863      865      899      904      903      905
     4052     4062     4063     4053     4160     4170     4171     4161     4054     4066     4064     4068
        1        1        1        1        0        0        0        0       20        0      645      881      897      898      886      921      937      938      926
     4100     4154     4118     4099     4208     4262     4226     4207     4101     4156     4159     4119
        1        1        1        1        0        0        0        0       20        0      646      881      883      896      897      921      923      936      937
     4098     4107     4150     4100     4206     4215     4258     4208     4101     4108     4153     4156
        1        1        1        1        0        0        0        0       20        0      647      883      884      895      896      923      924      935      936
     4105     4111     4147     4107     4213     4219     4255     4215     4108     4112     4149     4153
        1        1        1        1        0        0        0        0       20        0      648      881      882      888      883      921      922      928      923
     4097     4103     4106     4098     4205     4211     4214     4206     4101     4104     4126     4108
        1        1        1        1        0        0        0        0       20        0      649      882      886      887      888      922      926      927      928
     4102     4117     4120     4103     4210     4225     4228     4211     4104     4119     4123     4126
        1        1        1        1        0        0        0        0       20        0      650      884      885      894      895      924      925      934      935
     4109     4115     4144     4111     4217     4223     4252     4219     4112     4116     4146     4149
        1        1        1        1        0        0        0        0       20        0      651      884      889      890      885      924      929      930      925
     4110     4127     4113     4109     4218     4235     4221     4217     4112     4129     4132     4116
        1        1        1        1        0        0        0        0       20        0      652      883      888      889      884      923      928      929      924
     4106     4124     4110     4105     4214     4232     4218     4213     4108     4126     4129     4112
        1        1        1        1        0        0        0        0       20        0      653      885      890      891      892      925      930      931      932
     4113     4130     4133     4114     4221     4238     4241     4222     4116     4132     4136     4139
        1        1        1        1        0        0        0        0       20        0      654      885      892      893      894      925      932      933      934
     4114     4137     4140     4115     4222     4245     4248     4223     4116     4139     4143     4146
        1        1        1        1        0        0        0        0       20        0      655      886      898      899      887      926      938      939      927
     4118     4157     4121     4117     4226     4265     4229     4225     4119     4159     4162     4123
        1        1        1        1        0        0        0        0       20        0      656      887      899      905      907      927      939      945      947
     4121     4161     4175     4122     4229     4269     4283     4230     4123     4162     4176     4180
        1        1        1        1        0        0        0        0       20        0      657      887      907      912      888      927      947      952      928
     4122     4179     4125     4120     4230     4287     4233     4228     4123     4180     4190     4126
        1        1        1        1        0        0        0        0       20        0      658      888      912      914      889      928      952      954      929
     4125     4189     4128     4124     4233     4297     4236     4232     4126     4190     4194     4129
        1        1        1        1        0        0        0        0       20        0      659      889      914      915      890      929      954      955      930
     4128     4193     4131     4127     4236     4301     4239     4235     4129     4194     4195     4132
        1        1        1        1        0        0        0        0       20        0      660      890      915      901      891      930      955      941      931
     4131     4166     4134     4130     4239     4274     4242     4238     4132     4195     4167     4136
        1        1        1        1        0        0        0        0       20        0      661      891      901      900      902      931      941      940      942
     4134     4163     4164     4135     4242     4271     4272     4243     4136     4167     4165     4169
        1        1        1        1        0        0        0        0       20        0      662      891      902      919      892      931      942      959      932
     4135     4168     4138     4133     4243     4276     4246     4241     4136     4169     4203     4139
        1        1        1        1        0        0        0        0       20        0      663      892      919      920      893      932      959      960      933
     4138     4202     4142     4137     4246     4310     4250     4245     4139     4203     4204     4143
        1        1        1        1        0        0        0        0       20        0      664      893      920      916      918      933      960      956      958
     4142     4197     4196     4141     4250     4305     4304     4249     4143     4204     4198     4201
        1        1        1        1        0        0        0        0       20        0      665      893      918      917      894      933      958      957      934
     4141     4199     4145     4140     4249     4307     4253     4248     4143     4201     4200     4146
        1        1        1        1        0        0        0        0       20        0      666      894      917      913      895      934      957      953      935
     4145     4191     4148     4144     4253     4299     4256     4252     4146     4200     4192     4149
        1        1        1        1        0        0        0        0       20        0      667      895      913      911      896      935      953      951      936
     4148     4187     4152     4147     4256     4295     4260     4255     4149     4192     4188     4153
        1        1        1        1        0        0        0        0       20        0      668      896      911      908      909      936      951      948      949
     4152     4182     4181     4151     4260     4290     4289     4259     4153     4188     4183     4185
        1        1        1        1        0        0        0        0       20        0      669      896      909      910      897      936      949      950      937
     4151     4184     4155     4150     4259     4292     4263     4258     4153     4185     4186     4156
        1        1        1        1        0        0        0        0       20        0      670      897      910      906      898      937      950      946      938
     4155     4177     4158     4154     4263     4285     4266     4262     4156     4186     4178     4159
        1        1        1        1        0        0        0        0       20        0      671      898      906      904      899      938      946      944      939
     4158     4173     4160     4157     4266     4281     4268     4265     4159     4178     4174     4162
        1        1        1        1        0        0        0        0       20        0      672      899      904      903      905      939      944      943      945
     4160     4170     4171     4161     4268     4278     4279     4269     4162     4174     4172     4176
        1        1        1        1        0        0        0        0       20        0      673      921      937      938      926      961      977      978      966
     4208     4262     4226     4207     4316     4370     4334     4315     4209     4264     4267     4227
        1        1        1        1        0        0        0        0       20        0      674      921      923      936      937      961      963      976      977
     4206     4215     4258     4208     4314     4323     4366     4316     4209     4216     4261     4264
        1        1        1        1        0        0        0        0       20        0      675      923      924      935      936      963      964      975      976
     4213     4219     4255     4215     4321     4327     4363     4323     4216     4220     4257     4261
        1        1        1        1        0        0        0        0       20        0      676      921      922      928      923      961      962      968      963
     4205     4211     4214     4206     4313     4319     4322     4314     4209     4212     4234     4216
        1        1        1        1        0        0        0        0       20        0      677      922      926      927      928      962      966      967      968
     4210     4225     4228     4211     4318     4333     4336     4319     4212     4227     4231     4234
        1        1        1        1        0        0        0        0       20        0      678      924      925      934      935      964      965      974      975
     4217     4223     4252     4219     4325     4331     4360     4327     4220     4224     4254     4257
        1        1        1        1        0        0        0        0       20        0      679      924      929      930      925      964      969      970      965
     4218     4235     4221     4217     4326     4343     4329     4325     4220     4237     4240     4224
        1        1        1        1        0        0        0        0       20        0      680      923      928      929      924      963      968      969      964
     4214     4232     4218     4213     4322     4340     4326     4321     4216     4234     4237     4220
        1        1        1        1        0        0        0        0       20        0      681      925      930      931      932      965      970      971      972
     4221     4238     4241     4222     4329     4346     4349     4330     4224     4240     4244     4247
        1        1        1        1        0        0        0        0       20        0      682      925      932      933      934      965      972      973      974
     4222     4245     4248     4223     4330     4353     4356     4331     4224     4247     4251     4254
        1        1        1        1        0        0        0        0       20        0      683      926      938      939      927      966      978      979      967
     4226     4265     4229     4225     4334     4373     4337     4333     4227     4267     4270     4231
        1        1        1        1        0        0        0        0       20        0      684      927      939      945      947      967      979      985      987
     4229     4269     4283     4230     4337     4377     4391     4338     4231     4270     4284     4288
        1        1        1        1        0        0        0        0       20        0      685      927      947      952      928      967      987      992      968
     4230     4287     4233     4228     4338     4395     4341     4336     4231     4288     4298     4234
        1        1        1        1        0        0        0        0       20        0      686      928      952      954      929      968      992      994      969
     4233     4297     4236     4232     4341     4405     4344     4340     4234     4298     4302     4237
        1        1        1        1        0        0        0        0       20        0      687      929      954      955      930      969      994      995      970
     4236     4301     4239     4235     4344     4409     4347     4343     4237     4302     4303     4240
        1        1        1        1        0        0        0        0       20        0      688      930      955      941      931      970      995      981      971
     4239     4274     4242     4238     4347     4382     4350     4346     4240     4303     4275     4244
        1        1        1        1        0        0        0        0       20        0      689      931      941      940      942      971      981      980      982
     4242     4271     4272     4243     4350     4379     4380     4351     4244     4275     4273     4277
        1        1        1        1        0        0        0        0       20        0      690      931      942      959      932      971      982      999      972
     4243     4276     4246     4241     4351     4384     4354     4349     4244     4277     4311     4247
        1        1        1        1        0        0        0        0       20        0      691      932      959      960      933      972      999     1000      973
     4246     4310     4250     4245     4354     4418     4358     4353     4247     4311     4312     4251
        1        1        1        1        0        0        0        0       20        0      692      933      960      956      958      973     1000      996      998
     4250     4305     4304     4249     4358     4413     4412     4357     4251     4312     4306     4309
        1        1        1        1        0        0        0        0       20        0      693      933      958      957      934      973      998      997      974
     4249     4307     4253     4248     4357     4415     4361     4356     4251     4309     4308     4254
        1        1        1        1        0        0        0        0       20        0      694      934      957      953      935      974      997      993      975
     4253     4299     4256     4252     4361     4407     4364     4360     4254     4308     4300     4257
        1        1        1        1        0        0        0        0       20        0      695      935      953      951      936      975      993      991      976
     4256     4295     4260     4255     4364     4403     4368     4363     4257     4300     4296     4261
        1        1        1        1        0        0        0        0       20        0      696      936      951      948      949      976      991      988      989
     4260     4290     4289     4259     4368     4398     4397     4367     4261     4296     4291     4293
        1        1        1        1        0        0        0        0       20        0      697      936      949      950      937      976      989      990      977
     4259     4292     4263     4258     4367     4400     4371     4366     4261     4293     4294     4264
        1        1        1        1        0        0        0        0       20        0      698      937      950      946      938      977      990      986      978
     4263     4285     4266     4262     4371     4393     4374     4370     4264     4294     4286     4267
        1        1        1        1        0        0        0        0       20        0      699      938      946      944      939      978      986      984      979
     4266     4281     4268     4265     4374     4389     4376     4373     4267     4286     4282     4270
        1        1        1        1        0        0        0        0       20        0      700      939      944      943      945      979      984      983      985
     4268     4278     4279     4269     4376     4386     4387     4377     4270     4282     4280     4284
        1        1        1        1        0        0        0        0       20        0      701      961      977      978      966     1001     1017     1018     1006
     4316     4370     4334     4315     4424     4478     4442     4423     4317     4372     4375     4335
        1        1        1        1        0        0        0        0       20        0      702      961      963      976      977     1001     1003     1016     1017
     4314     4323     4366     4316     4422     4431     4474     4424     4317     4324     4369     4372
        1        1        1        1        0        0        0        0       20        0      703      963      964      975      976     1003     1004     1015     1016
     4321     4327     4363     4323     4429     4435     4471     4431     4324     4328     4365     4369
        1        1        1        1        0        0        0        0       20        0      704      961      962      968      963     1001     1002     1008     1003
     4313     4319     4322     4314     4421     4427     4430     4422     4317     4320     4342     4324
        1        1        1        1        0        0        0        0       20        0      705      962      966      967      968     1002     1006     1007     1008
     4318     4333     4336     4319     4426     4441     4444     4427     4320     4335     4339     4342
        1        1        1        1        0        0        0        0       20        0      706      964      965      974      975     1004     1005     1014     1015
     4325     4331     4360     4327     4433     4439     4468     4435     4328     4332     4362     4365
        1        1        1        1        0        0        0        0       20        0      707      964      969      970      965     1004     1009     1010     1005
     4326     4343     4329     4325     4434     4451     4437     4433     4328     4345     4348     4332
        1        1        1        1        0        0        0        0       20        0      708      963      968      969      964     1003     1008     1009     1004
     4322     4340     4326     4321     4430     4448     4434     4429     4324     4342     4345     4328
        1        1        1        1        0        0        0        0       20        0      709      965      970      971      972     1005     1010     1011     1012
     4329     4346     4349     4330     4437     4454     4457     4438     4332     4348     4352     4355
        1        1        1        1        0        0        0        0       20        0      710      965      972      973      974     1005     1012     1013     1014
     4330     4353     4356     4331     4438     4461     4464     4439     4332     4355     4359     4362
        1        1        1        1        0        0        0        0       20        0      711      966      978      979      967     1006     1018     1019     1007
     4334     4373     4337     4333     4442     4481     4445     4441     4335     4375     4378     4339
        1        1        1        1        0        0        0        0       20        0      712      967      979      985      987     1007     1019     1025     1027
     4337     4377     4391     4338     4445     4485     4499     4446     4339     4378     4392     4396
        1        1        1        1        0        0        0        0       20        0      713      967      987      992      968     1007     1027     1032     1008
     4338     4395     4341     4336     4446     4503     4449     4444     4339     4396     4406     4342
        1        1        1        1        0        0        0        0       20        0      714      968      992      994      969     1008     1032     1034     1009
     4341     4405     4344     4340     4449     4513     4452     4448     4342     4406     4410     4345
        1        1        1        1        0        0        0        0       20        0      715      969      994      995      970     1009     1034     1035     1010
     4344     4409     4347     4343     4452     4517     4455     4451     4345     4410     4411     4348
        1        1        1        1        0        0        0        0       20        0      716      970      995      981      971     1010     1035     1021     1011
     4347     4382     4350     4346     4455     4490     4458     4454     4348     4411     4383     4352
        1        1        1        1        0        0        0        0       20        0      717      971      981      980      982     1011     1021     1020     1022
     4350     4379     4380     4351     4458     4487     4488     4459     4352     4383     4381     4385
        1        1        1        1        0        0        0        0       20        0      718      971      982      999      972     1011     1022     1039     1012
     4351     4384     4354     4349     4459     4492     4462     4457     4352     4385     4419     4355
        1        1        1        1        0        0        0        0       20        0      719      972      999     1000      973     1012     1039     1040     1013
     4354     4418     4358     4353     4462     4526     4466     4461     4355     4419     4420     4359
        1        1        1        1        0        0        0        0       20        0      720      973     1000      996      998     1013     1040     1036     1038
     4358     4413     4412     4357     4466     4521     4520     4465     4359     4420     4414     4417
        1        1        1        1        0        0        0        0       20        0      721      973      998      997      974     1013     1038     1037     1014
     4357     4415     4361     4356     4465     4523     4469     4464     4359     4417     4416     4362
        1        1        1        1        0        0        0        0       20        0      722      974      997      993      975     1014     1037     1033     1015
     4361     4407     4364     4360     4469     4515     4472     4468     4362     4416     4408     4365
        1        1        1        1        0        0        0        0       20        0      723      975      993      991      976     1015     1033     1031     1016
     4364     4403     4368     4363     4472     4511     4476     4471     4365     4408     4404     4369
        1        1        1        1        0        0        0        0       20        0      724      976      991      988      989     1016     1031     1028     1029
     4368     4398     4397     4367     4476     4506     4505     4475     4369     4404     4399     4401
        1        1        1        1        0        0        0        0       20        0      725      976      989      990      977     1016     1029     1030     1017
     4367     4400     4371     4366     4475     4508     4479     4474     4369     4401     4402     4372
        1        1        1        1        0        0        0        0       20        0      726      977      990      986      978     1017     1030     1026     1018
     4371     4393     4374     4370     4479     4501     4482     4478     4372     4402     4394     4375
        1        1        1        1        0        0        0        0       20        0      727      978      986      984      979     1018     1026     1024     1019
     4374     4389     4376     4373     4482     4497     4484     4481     4375     4394     4390     4378
        1        1        1        1        0        0        0        0       20        0      728      979      984      983      985     1019     1024     1023     1025
     4376     4386     4387     4377     4484     4494     4495     4485     4378     4390     4388     4392
        1        1        1        1        0        0        0        0       20        0      729     1001     1017     1018     1006     1041     1057     1058     1046
     4424     4478     4442     4423     4532     4586     4550     4531     4425     4480     4483     4443
        1        1        1        1        0        0        0        0       20        0      730     1001     1003     1016     1017     1041     1043     1056     1057
     4422     4431     4474     4424     4530     4539     4582     4532     4425     4432     4477     4480
        1        1        1        1        0        0        0        0       20        0      731     1003     1004     1015     1016     1043     1044     1055     1056
     4429     4435     4471     4431     4537     4543     4579     4539     4432     4436     4473     4477
        1        1        1        1        0        0        0        0       20        0      732     1001     1002     1008     1003     1041     1042     1048     1043
     4421     4427     4430     4422     4529     4535     4538     4530     4425     4428     4450     4432
        1        1        1        1        0        0        0        0       20        0      733     1002     1006     1007     1008     1042     1046     1047     1048
     4426     4441     4444     4427     4534     4549     4552     4535     4428     4443     4447     4450
        1        1        1        1        0        0        0        0       20        0      734     1004     1005     1014     1015     1044     1045     1054     1055
     4433     4439     4468     4435     4541     4547     4576     4543     4436     4440     4470     4473
        1        1        1        1        0        0        0        0       20        0      735     1004     1009     1010     1005     1044     1049     1050     1045
     4434     4451     4437     4433     4542     4559     4545     4541     4436     4453     4456     4440
        1        1        1        1        0        0        0        0       20        0      736     1003     1008     1009     1004     1043     1048     1049     1044
     4430     4448     4434     4429     4538     4556     4542     4537     4432     4450     4453     4436
        1        1        1        1        0        0        0        0       20        0      737     1005     1010     1011     1012     1045     1050     1051     1052
     4437     4454     4457     4438     4545     4562     4565     4546     4440     4456     4460     4463
        1        1        1        1        0        0        0        0       20        0      738     1005     1012     1013     1014     1045     1052     1053     1054
     4438     4461     4464     4439     4546     4569     4572     4547     4440     4463     4467     4470
        1        1        1        1        0        0        0        0       20        0      739     1006     1018     1019     1007     1046     1058     1059     1047
     4442     4481     4445     4441     4550     4589     4553     4549     4443     4483     4486     4447
        1        1        1        1        0        0        0        0       20        0      740     1007     1019     1025     1027     1047     1059     1065     1067
     4445     4485     4499     4446     4553     4593     4607     4554     4447     4486     4500     4504
        1        1        1        1        0        0        0        0       20        0      741     1007     1027     1032     1008     1047     1067     1072     1048
     4446     4503     4449     4444     4554     4611     4557     4552     4447     4504     4514     4450
        1        1        1        1        0        0        0        0       20        0      742     1008     1032     1034     1009     1048     1072     1074     1049
     4449     4513     4452     4448     4557     4621     4560     4556     4450     4514     4518     4453
        1        1        1        1        0        0        0        0       20        0      743     1009     1034     1035     1010     1049     1074     1075     1050
     4452     4517     4455     4451     4560     4625     4563     4559     4453     4518     4519     4456
        1        1        1        1        0        0        0        0       20        0      744     1010     1035     1021     1011     1050     1075     1061     1051
     4455     4490     4458     4454     4563     4598     4566     4562     4456     4519     4491     4460
        1        1        1        1        0        0        0        0       20        0      745     1011     1021     1020     1022     1051     1061     1060     1062
     4458     4487     4488     4459     4566     4595     4596     4567     4460     4491     4489     4493
        1        1        1        1        0        0        0        0       20        0      746     1011     1022     1039     1012     1051     1062     1079     1052
     4459     4492     4462     4457     4567     4600     4570     4565     4460     4493     4527     4463
        1        1        1        1        0        0        0        0       20        0      747     1012     1039     1040     1013     1052     1079     1080     1053
     4462     4526     4466     4461     4570     4634     4574     4569     4463     4527     4528     4467
        1        1        1        1        0        0        0        0       20        0      748     1013     1040     1036     1038     1053     1080     1076     1078
     4466     4521     4520     4465     4574     4629     4628     4573     4467     4528     4522     4525
        1        1        1        1        0        0        0        0       20        0      749     1013     1038     1037     1014     1053     1078     1077     1054
     4465     4523     4469     4464     4573     4631     4577     4572     4467     4525     4524     4470
        1        1        1        1        0        0        0        0       20        0      750     1014     1037     1033     1015     1054     1077     1073     1055
     4469     4515     4472     4468     4577     4623     4580     4576     4470     4524     4516     4473
        1        1        1        1        0        0        0        0       20        0      751     1015     1033     1031     1016     1055     1073     1071     1056
     4472     4511     4476     4471     4580     4619     4584     4579     4473     4516     4512     4477
        1        1        1        1        0        0        0        0       20        0      752     1016     1031     1028     1029     1056     1071     1068     1069
     4476     4506     4505     4475     4584     4614     4613     4583     4477     4512     4507     4509
        1        1        1        1        0        0        0        0       20        0      753     1016     1029     1030     1017     1056     1069     1070     1057
     4475     4508     4479     4474     4583     4616     4587     4582     4477     4509     4510     4480
        1        1        1        1        0        0        0        0       20        0      754     1017     1030     1026     1018     1057     1070     1066     1058
     4479     4501     4482     4478     4587     4609     4590     4586     4480     4510     4502     4483
        1        1        1        1        0        0        0        0       20        0      755     1018     1026     1024     1019     1058     1066     1064     1059
     4482     4497     4484     4481     4590     4605     4592     4589     4483     4502     4498     4486
        1        1        1        1        0        0        0        0       20        0      756     1019     1024     1023     1025     1059     1064     1063     1065
     4484     4494     4495     4485     4592     4602     4603     4593     4486     4498     4496     4500
        1        1        1        1        0        0        0        0       20        0      757     1041     1057     1058     1046     1081     1097     1098     1086
     4532     4586     4550     4531     4640     4694     4658     4639     4533     4588     4591     4551
        1        1        1        1        0        0        0        0       20        0      758     1041     1043     1056     1057     1081     1083     1096     1097
     4530     4539     4582     4532     4638     4647     4690     4640     4533     4540     4585     4588
        1        1        1        1        0        0        0        0       20        0      759     1043     1044     1055     1056     1083     1084     1095     1096
     4537     4543     4579     4539     4645     4651     4687     4647     4540     4544     4581     4585
        1        1        1        1        0        0        0        0       20        0      760     1041     1042     1048     1043     1081     1082     1088     1083
     4529     4535     4538     4530     4637     4643     4646     4638     4533     4536     4558     4540
        1        1        1        1        0        0        0        0       20        0      761     1042     1046     1047     1048     1082     1086     1087     1088
     4534     4549     4552     4535     4642     4657     4660     4643     4536     4551     4555     4558
        1        1        1        1        0        0        0        0       20        0      762     1044     1045     1054     1055     1084     1085     1094     1095
     4541     4547     4576     4543     4649     4655     4684     4651     4544     4548     4578     4581
        1        1        1        1        0        0        0        0       20        0      763     1044     1049     1050     1045     1084     1089     1090     1085
     4542     4559     4545     4541     4650     4667     4653     4649     4544     4561     4564     4548
        1        1        1        1        0        0        0        0       20        0      764     1043     1048     1049     1044     1083     1088     1089     1084
     4538     4556     4542     4537     4646     4664     4650     4645     4540     4558     4561     4544
        1        1        1        1        0        0        0        0       20        0      765     1045     1050     1051     1052     1085     1090     1091     1092
     4545     4562     4565     4546     4653     4670     4673     4654     4548     4564     4568     4571
        1        1        1        1        0        0        0        0       20        0      766     1045     1052     1053     1054     1085     1092     1093     1094
     4546     4569     4572     4547     4654     4677     4680     4655     4548     4571     4575     4578
        1        1        1        1        0        0        0        0       20        0      767     1046     1058     1059     1047     1086     1098     1099     1087
     4550     4589     4553     4549     4658     4697     4661     4657     4551     4591     4594     4555
        1        1        1        1        0        0        0        0       20        0      768     1047     1059     1065     1067     1087     1099     1105     1107
     4553     4593     4607     4554     4661     4701     4715     4662     4555     4594     4608     4612
        1        1        1        1        0        0        0        0       20        0      769     1047     1067     1072     1048     1087     1107     1112     1088
     4554     4611     4557     4552     4662     4719     4665     4660     4555     4612     4622     4558
        1        1        1        1        0        0        0        0       20        0      770     1048     1072     1074     1049     1088     1112     1114     1089
     4557     4621     4560     4556     4665     4729     4668     4664     4558     4622     4626     4561
        1        1        1        1        0        0        0        0       20        0      771     1049     1074     1075     1050     1089     1114     1115     1090
     4560     4625     4563     4559     4668     4733     4671     4667     4561     4626     4627     4564
        1        1        1        1        0        0        0        0       20        0      772     1050     1075     1061     1051     1090     1115     1101     1091
     4563     4598     4566     4562     4671     4706     4674     4670     4564     4627     4599     4568
        1        1        1        1        0        0        0        0       20        0      773     1051     1061     1060     1062     1091     1101     1100     1102
     4566     4595     4596     4567     4674     4703     4704     4675     4568     4599     4597     4601
        1        1        1        1        0        0        0        0       20        0      774     1051     1062     1079     1052     1091     1102     1119     1092
     4567     4600     4570     4565     4675     4708     4678     4673     4568     4601     4635     4571
        1        1        1        1        0        0        0        0       20        0      775     1052     1079     1080     1053     1092     1119     1120     1093
     4570     4634     4574     4569     4678     4742     4682     4677     4571     4635     4636     4575
        1        1        1        1        0        0        0        0       20        0      776     1053     1080     1076     1078     1093     1120     1116     1118
     4574     4629     4628     4573     4682     4737     4736     4681     4575     4636     4630     4633
        1        1        1        1        0        0        0        0       20        0      777     1053     1078     1077     1054     1093     1118     1117     1094
     4573     4631     4577     4572     4681     4739     4685     4680     4575     4633     4632     4578
        1        1        1        1        0        0        0        0       20        0      778     1054     1077     1073     1055     1094     1117     1113     1095
     4577     4623     4580     4576     4685     4731     4688     4684     4578     4632     4624     4581
        1        1        1        1        0        0        0        0       20        0      779     1055     1073     1071     1056     1095     1113     1111     1096
     4580     4619     4584     4579     4688     4727     4692     4687     4581     4624     4620     4585
        1        1        1        1        0        0        0        0       20        0      780     1056     1071     1068     1069     1096     1111     1108     1109
     4584     4614     4613     4583     4692     4722     4721     4691     4585     4620     4615     4617
        1        1        1        1        0        0        0        0       20        0      781     1056     1069     1070     1057     1096     1109     1110     1097
     4583     4616     4587     4582     4691     4724     4695     4690     4585     4617     4618     4588
        1        1        1        1        0        0        0        0       20        0      782     1057     1070     1066     1058     1097     1110     1106     1098
     4587     4609     4590     4586     4695     4717     4698     4694     4588     4618     4610     4591
        1        1        1        1        0        0        0        0       20        0      783     1058     1066     1064     1059     1098     1106     1104     1099
     4590     4605     4592     4589     4698     4713     4700     4697     4591     4610     4606     4594
        1        1        1        1        0        0        0        0       20        0      784     1059     1064     1063     1065     1099     1104     1103     1105
     4592     4602     4603     4593     4700     4710     4711     4701     4594     4606     4604     4608
        1        1        1        1        0        0        0        0       20        0      785     1081     1097     1098     1086     1121     1137     1138     1126
     4640     4694     4658     4639     4748     4802     4766     4747     4641     4696     4699     4659
        1        1        1        1        0        0        0        0       20        0      786     1081     1083     1096     1097     1121     1123     1136     1137
     4638     4647     4690     4640     4746     4755     4798     4748     4641     4648     4693     4696
        1        1        1        1        0        0        0        0       20        0      787     1083     1084     1095     1096     1123     1124     1135     1136
     4645     4651     4687     4647     4753     4759     4795     4755     4648     4652     4689     4693
        1        1        1        1        0        0        0        0       20        0      788     1081     1082     1088     1083     1121     1122     1128     1123
     4637     4643     4646     4638     4745     4751     4754     4746     4641     4644     4666     4648
        1        1        1        1        0        0        0        0       20        0      789     1082     1086     1087     1088     1122     1126     1127     1128
     4642     4657     4660     4643     4750     4765     4768     4751     4644     4659     4663     4666
        1        1        1        1        0        0        0        0       20        0      790     1084     1085     1094     1095     1124     1125     1134     1135
     4649     4655     4684     4651     4757     4763     4792     4759     4652     4656     4686     4689
        1        1        1        1        0        0        0        0       20        0      791     1084     1089     1090     1085     1124     1129     1130     1125
     4650     4667     4653     4649     4758     4775     4761     4757     4652     4669     4672     4656
        1        1        1        1        0        0        0        0       20        0      792     1083     1088     1089     1084     1123     1128     1129     1124
     4646     4664     4650     4645     4754     4772     4758     4753     4648     4666     4669     4652
        1        1        1        1        0        0        0        0       20        0      793     1085     1090     1091     1092     1125     1130     1131     1132
     4653     4670     4673     4654     4761     4778     4781     4762     4656     4672     4676     4679
        1        1        1        1        0        0        0        0       20        0      794     1085     1092     1093     1094     1125     1132     1133     1134
     4654     4677     4680     4655     4762     4785     4788     4763     4656     4679     4683     4686
        1        1        1        1        0        0        0        0       20        0      795     1086     1098     1099     1087     1126     1138     1139     1127
     4658     4697     4661     4657     4766     4805     4769     4765     4659     4699     4702     4663
        1        1        1        1        0        0        0        0       20        0      796     1087     1099     1105     1107     1127     1139     1145     1147
     4661     4701     4715     4662     4769     4809     4823     4770     4663     4702     4716     4720
        1        1        1        1        0        0        0        0       20        0      797     1087     1107     1112     1088     1127     1147     1152     1128
     4662     4719     4665     4660     4770     4827     4773     4768     4663     4720     4730     4666
        1        1        1        1        0        0        0        0       20        0      798     1088     1112     1114     1089     1128     1152     1154     1129
     4665     4729     4668     4664     4773     4837     4776     4772     4666     4730     4734     4669
        1        1        1        1        0        0        0        0       20        0      799     1089     1114     1115     1090     1129     1154     1155     1130
     4668     4733     4671     4667     4776     4841     4779     4775     4669     4734     4735     4672
        1        1        1        1        0        0        0        0       20        0      800     1090     1115     1101     1091     1130     1155     1141     1131
     4671     4706     4674     4670     4779     4814     4782     4778     4672     4735     4707     4676
        1        1        1        1        0        0        0        0       20        0      801     1091     1101     1100     1102     1131     1141     1140     1142
     4674     4703     4704     4675     4782     4811     4812     4783     4676     4707     4705     4709
        1        1        1        1        0        0        0        0       20        0      802     1091     1102     1119     1092     1131     1142     1159     1132
     4675     4708     4678     4673     4783     4816     4786     4781     4676     4709     4743     4679
        1        1        1        1        0        0        0        0       20        0      803     1092     1119     1120     1093     1132     1159     1160     1133
     4678     4742     4682     4677     4786     4850     4790     4785     4679     4743     4744     4683
        1        1        1        1        0        0        0        0       20        0      804     1093     1120     1116     1118     1133     1160     1156     1158
     4682     4737     4736     4681     4790     4845     4844     4789     4683     4744     4738     4741
        1        1        1        1        0        0        0        0       20        0      805     1093     1118     1117     1094     1133     1158     1157     1134
     4681     4739     4685     4680     4789     4847     4793     4788     4683     4741     4740     4686
        1        1        1        1        0        0        0        0       20        0      806     1094     1117     1113     1095     1134     1157     1153     1135
     4685     4731     4688     4684     4793     4839     4796     4792     4686     4740     4732     4689
        1        1        1        1        0        0        0        0       20        0      807     1095     1113     1111     1096     1135     1153     1151     1136
     4688     4727     4692     4687     4796     4835     4800     4795     4689     4732     4728     4693
        1        1        1        1        0        0        0        0       20        0      808     1096     1111     1108     1109     1136     1151     1148     1149
     4692     4722     4721     4691     4800     4830     4829     4799     4693     4728     4723     4725
        1        1        1        1        0        0        0        0       20        0      809     1096     1109     1110     1097     1136     1149     1150     1137
     4691     4724     4695     4690     4799     4832     4803     4798     4693     4725     4726     4696
        1        1        1        1        0        0        0        0       20        0      810     1097     1110     1106     1098     1137     1150     1146     1138
     4695     4717     4698     4694     4803     4825     4806     4802     4696     4726     4718     4699
        1        1        1        1        0        0        0        0       20        0      811     1098     1106     1104     1099     1138     1146     1144     1139
     4698     4713     4700     4697     4806     4821     4808     4805     4699     4718     4714     4702
        1        1        1        1        0        0        0        0       20        0      812     1099     1104     1103     1105     1139     1144     1143     1145
     4700     4710     4711     4701     4808     4818     4819     4809     4702     4714     4712     4716
        1        1        1        1        0        0        0        0       20        0      813     1121     1137     1138     1126     1161     1177     1178     1166
     4748     4802     4766     4747     4856     4910     4874     4855     4749     4804     4807     4767
        1        1        1        1        0        0        0        0       20        0      814     1121     1123     1136     1137     1161     1163     1176     1177
     4746     4755     4798     4748     4854     4863     4906     4856     4749     4756     4801     4804
        1        1        1        1        0        0        0        0       20        0      815     1123     1124     1135     1136     1163     1164     1175     1176
     4753     4759     4795     4755     4861     4867     4903     4863     4756     4760     4797     4801
        1        1        1        1        0        0        0        0       20        0      816     1121     1122     1128     1123     1161     1162     1168     1163
     4745     4751     4754     4746     4853     4859     4862     4854     4749     4752     4774     4756
        1        1        1        1        0        0        0        0       20        0      817     1122     1126     1127     1128     1162     1166     1167     1168
     4750     4765     4768     4751     4858     4873     4876     4859     4752     4767     4771     4774
        1        1        1        1        0        0        0        0       20        0      818     1124     1125     1134     1135     1164     1165     1174     1175
     4757     4763     4792     4759     4865     4871     4900     4867     4760     4764     4794     4797
        1        1        1        1        0        0        0        0       20        0      819     1124     1129     1130     1125     1164     1169     1170     1165
     4758     4775     4761     4757     4866     4883     4869     4865     4760     4777     4780     4764
        1        1        1        1        0        0        0        0       20        0      820     1123     1128     1129     1124     1163     1168     1169     1164
     4754     4772     4758     4753     4862     4880     4866     4861     4756     4774     4777     4760
        1        1        1        1        0        0        0        0       20        0      821     1125     1130     1131     1132     1165     1170     1171     1172
     4761     4778     4781     4762     4869     4886     4889     4870     4764     4780     4784     4787
        1        1        1        1        0        0        0        0       20        0      822     1125     1132     1133     1134     1165     1172     1173     1174
     4762     4785     4788     4763     4870     4893     4896     4871     4764     4787     4791     4794
        1        1        1        1        0        0        0        0       20        0      823     1126     1138     1139     1127     1166     1178     1179     1167
     4766     4805     4769     4765     4874     4913     4877     4873     4767     4807     4810     4771
        1        1        1        1        0        0        0        0       20        0      824     1127     1139     1145     1147     1167     1179     1185     1187
     4769     4809     4823     4770     4877     4917     4931     4878     4771     4810     4824     4828
        1        1        1        1        0        0        0        0       20        0      825     1127     1147     1152     1128     1167     1187     1192     1168
     4770     4827     4773     4768     4878     4935     4881     4876     4771     4828     4838     4774
        1        1        1        1        0        0        0        0       20        0      826     1128     1152     1154     1129     1168     1192     1194     1169
     4773     4837     4776     4772     4881     4945     4884     4880     4774     4838     4842     4777
        1        1        1        1        0        0        0        0       20        0      827     1129     1154     1155     1130     1169     1194     1195     1170
     4776     4841     4779     4775     4884     4949     4887     4883     4777     4842     4843     4780
        1        1        1        1        0        0        0        0       20        0      828     1130     1155     1141     1131     1170     1195     1181     1171
     4779     4814     4782     4778     4887     4922     4890     4886     4780     4843     4815     4784
        1        1        1        1        0        0        0        0       20        0      829     1131     1141     1140     1142     1171     1181     1180     1182
     4782     4811     4812     4783     4890     4919     4920     4891     4784     4815     4813     4817
        1        1        1        1        0        0        0        0       20        0      830     1131     1142     1159     1132     1171     1182     1199     1172
     4783     4816     4786     4781     4891     4924     4894     4889     4784     4817     4851     4787
        1        1        1        1        0        0        0        0       20        0      831     1132     1159     1160     1133     1172     1199     1200     1173
     4786     4850     4790     4785     4894     4958     4898     4893     4787     4851     4852     4791
        1        1        1        1        0        0        0        0       20        0      832     1133     1160     1156     1158     1173     1200     1196     1198
     4790     4845     4844     4789     4898     4953     4952     4897     4791     4852     4846     4849
        1        1        1        1        0        0        0        0       20        0      833     1133     1158     1157     1134     1173     1198     1197     1174
     4789     4847     4793     4788     4897     4955     4901     4896     4791     4849     4848     4794
        1        1        1        1        0        0        0        0       20        0      834     1134     1157     1153     1135     1174     1197     1193     1175
     4793     4839     4796     4792     4901     4947     4904     4900     4794     4848     4840     4797
        1        1        1        1        0        0        0        0       20        0      835     1135     1153     1151     1136     1175     1193     1191     1176
     4796     4835     4800     4795     4904     4943     4908     4903     4797     4840     4836     4801
        1        1        1        1        0        0        0        0       20        0      836     1136     1151     1148     1149     1176     1191     1188     1189
     4800     4830     4829     4799     4908     4938     4937     4907     4801     4836     4831     4833
        1        1        1        1        0        0        0        0       20        0      837     1136     1149     1150     1137     1176     1189     1190     1177
     4799     4832     4803     4798     4907     4940     4911     4906     4801     4833     4834     4804
        1        1        1        1        0        0        0        0       20        0      838     1137     1150     1146     1138     1177     1190     1186     1178
     4803     4825     4806     4802     4911     4933     4914     4910     4804     4834     4826     4807
        1        1        1        1        0        0        0        0       20        0      839     1138     1146     1144     1139     1178     1186     1184     1179
     4806     4821     4808     4805     4914     4929     4916     4913     4807     4826     4822     4810
        1        1        1        1        0        0        0        0       20        0      840     1139     1144     1143     1145     1179     1184     1183     1185
     4808     4818     4819     4809     4916     4926     4927     4917     4810     4822     4820     4824
        1        1        1        1        0        0        0        0       20        0      841     1161     1177     1178     1166     1201     1217     1218     1206
     4856     4910     4874     4855     4964     5018     4982     4963     4857     4912     4915     4875
        1        1        1        1        0        0        0        0       20        0      842     1161     1163     1176     1177     1201     1203     1216     1217
     4854     4863     4906     4856     4962     4971     5014     4964     4857     4864     4909     4912
        1        1        1        1        0        0        0        0       20        0      843     1163     1164     1175     1176     1203     1204     1215     1216
     4861     4867     4903     4863     4969     4975     5011     4971     4864     4868     4905     4909
        1        1        1        1        0        0        0        0       20        0      844     1161     1162     1168     1163     1201     1202     1208     1203
     4853     4859     4862     4854     4961     4967     4970     4962     4857     4860     4882     4864
        1        1        1        1        0        0        0        0       20        0      845     1162     1166     1167     1168     1202     1206     1207     1208
     4858     4873     4876     4859     4966     4981     4984     4967     4860     4875     4879     4882
        1        1        1        1        0        0        0        0       20        0      846     1164     1165     1174     1175     1204     1205     1214     1215
     4865     4871     4900     4867     4973     4979     5008     4975     4868     4872     4902     4905
        1        1        1        1        0        0        0        0       20        0      847     1164     1169     1170     1165     1204     1209     1210     1205
     4866     4883     4869     4865     4974     4991     4977     4973     4868     4885     4888     4872
        1        1        1        1        0        0        0        0       20        0      848     1163     1168     1169     1164     1203     1208     1209     1204
     4862     4880     4866     4861     4970     4988     4974     4969     4864     4882     4885     4868
        1        1        1        1        0        0        0        0       20        0      849     1165     1170     1171     1172     1205     1210     1211     1212
     4869     4886     4889     4870     4977     4994     4997     4978     4872     4888     4892     4895
        1        1        1        1        0        0        0        0       20        0      850     1165     1172     1173     1174     1205     1212     1213     1214
     4870     4893     4896     4871     4978     5001     5004     4979     4872     4895     4899     4902
        1        1        1        1        0        0        0        0       20        0      851     1166     1178     1179     1167     1206     1218     1219     1207
     4874     4913     4877     4873     4982     5021     4985     4981     4875     4915     4918     4879
        1        1        1        1        0        0        0        0       20        0      852     1167     1179     1185     1187     1207     1219     1225     1227
     4877     4917     4931     4878     4985     5025     5039     4986     4879     4918     4932     4936
        1        1        1        1        0        0        0        0       20        0      853     1167     1187     1192     1168     1207     1227     1232     1208
     4878     4935     4881     4876     4986     5043     4989     4984     4879     4936     4946     4882
        1        1        1        1        0        0        0        0       20        0      854     1168     1192     1194     1169     1208     1232     1234     1209
     4881     4945     4884     4880     4989     5053     4992     4988     4882     4946     4950     4885
        1        1        1        1        0        0        0        0       20        0      855     1169     1194     1195     1170     1209     1234     1235     1210
     4884     4949     4887     4883     4992     5057     4995     4991     4885     4950     4951     4888
        1        1        1        1        0        0        0        0       20        0      856     1170     1195     1181     1171     1210     1235     1221     1211
     4887     4922     4890     4886     4995     5030     4998     4994     4888     4951     4923     4892
        1        1        1        1        0        0        0        0       20        0      857     1171     1181     1180     1182     1211     1221     1220     1222
     4890     4919     4920     4891     4998     5027     5028     4999     4892     4923     4921     4925
        1        1        1        1        0        0        0        0       20        0      858     1171     1182     1199     1172     1211     1222     1239     1212
     4891     4924     4894     4889     4999     5032     5002     4997     4892     4925     4959     4895
        1        1        1        1        0        0        0        0       20        0      859     1172     1199     1200     1173     1212     1239     1240     1213
     4894     4958     4898     4893     5002     5066     5006     5001     4895     4959     4960     4899
        1        1        1        1        0        0        0        0       20        0      860     1173     1200     1196     1198     1213     1240     1236     1238
     4898     4953     4952     4897     5006     5061     5060     5005     4899     4960     4954     4957
        1        1        1        1        0        0        0        0       20        0      861     1173     1198     1197     1174     1213     1238     1237     1214
     4897     4955     4901     4896     5005     5063     5009     5004     4899     4957     4956     4902
        1        1        1        1        0        0        0        0       20        0      862     1174     1197     1193     1175     1214     1237     1233     1215
     4901     4947     4904     4900     5009     5055     5012     5008     4902     4956     4948     4905
        1        1        1        1        0        0        0        0       20        0      863     1175     1193     1191     1176     1215     1233     1231     1216
     4904     4943     4908     4903     5012     5051     5016     5011     4905     4948     4944     4909
        1        1        1        1        0        0        0        0       20        0      864     1176     1191     1188     1189     1216     1231     1228     1229
     4908     4938     4937     4907     5016     5046     5045     5015     4909     4944     4939     4941
        1        1        1        1        0        0        0        0       20        0      865     1176     1189     1190     1177     1216     1229     1230     1217
     4907     4940     4911     4906     5015     5048     5019     5014     4909     4941     4942     4912
        1        1        1        1        0        0        0        0       20        0      866     1177     1190     1186     1178     1217     1230     1226     1218
     4911     4933     4914     4910     5019     5041     5022     5018     4912     4942     4934     4915
        1        1        1        1        0        0        0        0       20        0      867     1178     1186     1184     1179     1218     1226     1224     1219
     4914     4929     4916     4913     5022     5037     5024     5021     4915     4934     4930     4918
        1        1        1        1        0        0        0        0       20        0      868     1179     1184     1183     1185     1219     1224     1223     1225
     4916     4926     4927     4917     5024     5034     5035     5025     4918     4930     4928     4932
        1        1        1        1        0        0        0        0       20        0      869     1201     1217     1218     1206     1241     1257     1258     1246
     4964     5018     4982     4963     5072     5126     5090     5071     4965     5020     5023     4983
        1        1        1        1        0        0        0        0       20        0      870     1201     1203     1216     1217     1241     1243     1256     1257
     4962     4971     5014     4964     5070     5079     5122     5072     4965     4972     5017     5020
        1        1        1        1        0        0        0        0       20        0      871     1203     1204     1215     1216     1243     1244     1255     1256
     4969     4975     5011     4971     5077     5083     5119     5079     4972     4976     5013     5017
        1        1        1        1        0        0        0        0       20        0      872     1201     1202     1208     1203     1241     1242     1248     1243
     4961     4967     4970     4962     5069     5075     5078     5070     4965     4968     4990     4972
        1        1        1        1        0        0        0        0       20        0      873     1202     1206     1207     1208     1242     1246     1247     1248
     4966     4981     4984     4967     5074     5089     5092     5075     4968     4983     4987     4990
        1        1        1        1        0        0        0        0       20        0      874     1204     1205     1214     1215     1244     1245     1254     1255
     4973     4979     5008     4975     5081     5087     5116     5083     4976     4980     5010     5013
        1        1        1        1        0        0        0        0       20        0      875     1204     1209     1210     1205     1244     1249     1250     1245
     4974     4991     4977     4973     5082     5099     5085     5081     4976     4993     4996     4980
        1        1        1        1        0        0        0        0       20        0      876     1203     1208     1209     1204     1243     1248     1249     1244
     4970     4988     4974     4969     5078     5096     5082     5077     4972     4990     4993     4976
        1        1        1        1        0        0        0        0       20        0      877     1205     1210     1211     1212     1245     1250     1251     1252
     4977     4994     4997     4978     5085     5102     5105     5086     4980     4996     5000     5003
        1        1        1        1        0        0        0        0       20        0      878     1205     1212     1213     1214     1245     1252     1253     1254
     4978     5001     5004     4979     5086     5109     5112     5087     4980     5003     5007     5010
        1        1        1        1        0        0        0        0       20        0      879     1206     1218     1219     1207     1246     1258     1259     1247
     4982     5021     4985     4981     5090     5129     5093     5089     4983     5023     5026     4987
        1        1        1        1        0        0        0        0       20        0      880     1207     1219     1225     1227     1247     1259     1265     1267
     4985     5025     5039     4986     5093     5133     5147     5094     4987     5026     5040     5044
        1        1        1        1        0        0        0        0       20        0      881     1207     1227     1232     1208     1247     1267     1272     1248
     4986     5043     4989     4984     5094     5151     5097     5092     4987     5044     5054     4990
        1        1        1        1        0        0        0        0       20        0      882     1208     1232     1234     1209     1248     1272     1274     1249
     4989     5053     4992     4988     5097     5161     5100     5096     4990     5054     5058     4993
        1        1        1        1        0        0        0        0       20        0      883     1209     1234     1235     1210     1249     1274     1275     1250
     4992     5057     4995     4991     5100     5165     5103     5099     4993     5058     5059     4996
        1        1        1        1        0        0        0        0       20        0      884     1210     1235     1221     1211     1250     1275     1261     1251
     4995     5030     4998     4994     5103     5138     5106     5102     4996     5059     5031     5000
        1        1        1        1        0        0        0        0       20        0      885     1211     1221     1220     1222     1251     1261     1260     1262
     4998     5027     5028     4999     5106     5135     5136     5107     5000     5031     5029     5033
        1        1        1        1        0        0        0        0       20        0      886     1211     1222     1239     1212     1251     1262     1279     1252
     4999     5032     5002     4997     5107     5140     5110     5105     5000     5033     5067     5003
        1        1        1        1        0        0        0        0       20        0      887     1212     1239     1240     1213     1252     1279     1280     1253
     5002     5066     5006     5001     5110     5174     5114     5109     5003     5067     5068     5007
        1        1        1        1        0        0        0        0       20        0      888     1213     1240     1236     1238     1253     1280     1276     1278
     5006     5061     5060     5005     5114     5169     5168     5113     5007     5068     5062     5065
        1        1        1        1        0        0        0        0       20        0      889     1213     1238     1237     1214     1253     1278     1277     1254
     5005     5063     5009     5004     5113     5171     5117     5112     5007     5065     5064     5010
        1        1        1        1        0        0        0        0       20        0      890     1214     1237     1233     1215     1254     1277     1273     1255
     5009     5055     5012     5008     5117     5163     5120     5116     5010     5064     5056     5013
        1        1        1        1        0        0        0        0       20        0      891     1215     1233     1231     1216     1255     1273     1271     1256
     5012     5051     5016     5011     5120     5159     5124     5119     5013     5056     5052     5017
        1        1        1        1        0        0        0        0       20        0      892     1216     1231     1228     1229     1256     1271     1268     1269
     5016     5046     5045     5015     5124     5154     5153     5123     5017     5052     5047     5049
        1        1        1        1        0        0        0        0       20        0      893     1216     1229     1230     1217     1256     1269     1270     1257
     5015     5048     5019     5014     5123     5156     5127     5122     5017     5049     5050     5020
        1        1        1        1        0        0        0        0       20        0      894     1217     1230     1226     1218     1257     1270     1266     1258
     5019     5041     5022     5018     5127     5149     5130     5126     5020     5050     5042     5023
        1        1        1        1        0        0        0        0       20        0      895     1218     1226     1224     1219     1258     1266     1264     1259
     5022     5037     5024     5021     5130     5145     5132     5129     5023     5042     5038     5026
        1        1        1        1        0        0        0        0       20        0      896     1219     1224     1223     1225     1259     1264     1263     1265
     5024     5034     5035     5025     5132     5142     5143     5133     5026     5038     5036     5040
        1        1        1        1        0        0        0        0       20        0      897     1241     1257     1258     1246     1281     1297     1298     1286
     5072     5126     5090     5071     5180     5234     5198     5179     5073     5128     5131     5091
        1        1        1        1        0        0        0        0       20        0      898     1241     1243     1256     1257     1281     1283     1296     1297
     5070     5079     5122     5072     5178     5187     5230     5180     5073     5080     5125     5128
        1        1        1        1        0        0        0        0       20        0      899     1243     1244     1255     1256     1283     1284     1295     1296
     5077     5083     5119     5079     5185     5191     5227     5187     5080     5084     5121     5125
        1        1        1        1        0        0        0        0       20        0      900     1241     1242     1248     1243     1281     1282     1288     1283
     5069     5075     5078     5070     5177     5183     5186     5178     5073     5076     5098     5080
        1        1        1        1        0        0        0        0       20        0      901     1242     1246     1247     1248     1282     1286     1287     1288
     5074     5089     5092     5075     5182     5197     5200     5183     5076     5091     5095     5098
        1        1        1        1        0        0        0        0       20        0      902     1244     1245     1254     1255     1284     1285     1294     1295
     5081     5087     5116     5083     5189     5195     5224     5191     5084     5088     5118     5121
        1        1        1        1        0        0        0        0       20        0      903     1244     1249     1250     1245     1284     1289     1290     1285
     5082     5099     5085     5081     5190     5207     5193     5189     5084     5101     5104     5088
        1        1        1        1        0        0        0        0       20        0      904     1243     1248     1249     1244     1283     1288     1289     1284
     5078     5096     5082     5077     5186     5204     5190     5185     5080     5098     5101     5084
        1        1        1        1        0        0        0        0       20        0      905     1245     1250     1251     1252     1285     1290     1291     1292
     5085     5102     5105     5086     5193     5210     5213     5194     5088     5104     5108     5111
        1        1        1        1        0        0        0        0       20        0      906     1245     1252     1253     1254     1285     1292     1293     1294
     5086     5109     5112     5087     5194     5217     5220     5195     5088     5111     5115     5118
        1        1        1        1        0        0        0        0       20        0      907     1246     1258     1259     1247     1286     1298     1299     1287
     5090     5129     5093     5089     5198     5237     5201     5197     5091     5131     5134     5095
        1        1        1        1        0        0        0        0       20        0      908     1247     1259     1265     1267     1287     1299     1305     1307
     5093     5133     5147     5094     5201     5241     5255     5202     5095     5134     5148     5152
        1        1        1        1        0        0        0        0       20        0      909     1247     1267     1272     1248     1287     1307     1312     1288
     5094     5151     5097     5092     5202     5259     5205     5200     5095     5152     5162     5098
        1        1        1        1        0        0        0        0       20        0      910     1248     1272     1274     1249     1288     1312     1314     1289
     5097     5161     5100     5096     5205     5269     5208     5204     5098     5162     5166     5101
        1        1        1        1        0        0        0        0       20        0      911     1249     1274     1275     1250     1289     1314     1315     1290
     5100     5165     5103     5099     5208     5273     5211     5207     5101     5166     5167     5104
        1        1        1        1        0        0        0        0       20        0      912     1250     1275     1261     1251     1290     1315     1301     1291
     5103     5138     5106     5102     5211     5246     5214     5210     5104     5167     5139     5108
        1        1        1        1        0        0        0        0       20        0      913     1251     1261     1260     1262     1291     1301     1300     1302
     5106     5135     5136     5107     5214     5243     5244     5215     5108     5139     5137     5141
        1        1        1        1        0        0        0        0       20        0      914     1251     1262     1279     1252     1291     1302     1319     1292
     5107     5140     5110     5105     5215     5248     5218     5213     5108     5141     5175     5111
        1        1        1        1        0        0        0        0       20        0      915     1252     1279     1280     1253     1292     1319     1320     1293
     5110     5174     5114     5109     5218     5282     5222     5217     5111     5175     5176     5115
        1        1        1        1        0        0        0        0       20        0      916     1253     1280     1276     1278     1293     1320     1316     1318
     5114     5169     5168     5113     5222     5277     5276     5221     5115     5176     5170     5173
        1        1        1        1        0        0        0        0       20        0      917     1253     1278     1277     1254     1293     1318     1317     1294
     5113     5171     5117     5112     5221     5279     5225     5220     5115     5173     5172     5118
        1        1        1        1        0        0        0        0       20        0      918     1254     1277     1273     1255     1294     1317     1313     1295
     5117     5163     5120     5116     5225     5271     5228     5224     5118     5172     5164     5121
        1        1        1        1        0        0        0        0       20        0      919     1255     1273     1271     1256     1295     1313     1311     1296
     5120     5159     5124     5119     5228     5267     5232     5227     5121     5164     5160     5125
        1        1        1        1        0        0        0        0       20        0      920     1256     1271     1268     1269     1296     1311     1308     1309
     5124     5154     5153     5123     5232     5262     5261     5231     5125     5160     5155     5157
        1        1        1        1        0        0        0        0       20        0      921     1256     1269     1270     1257     1296     1309     1310     1297
     5123     5156     5127     5122     5231     5264     5235     5230     5125     5157     5158     5128
        1        1        1        1        0        0        0        0       20        0      922     1257     1270     1266     1258     1297     1310     1306     1298
     5127     5149     5130     5126     5235     5257     5238     5234     5128     5158     5150     5131
        1        1        1        1        0        0        0        0       20        0      923     1258     1266     1264     1259     1298     1306     1304     1299
     5130     5145     5132     5129     5238     5253     5240     5237     5131     5150     5146     5134
        1        1        1        1        0        0        0        0       20        0      924     1259     1264     1263     1265     1299     1304     1303     1305
     5132     5142     5143     5133     5240     5250     5251     5241     5134     5146     5144     5148
        1        1        1        1        0        0        0        0       20        0      925     1281     1297     1298     1286     1321     1337     1338     1326
     5180     5234     5198     5179     5288     5342     5306     5287     5181     5236     5239     5199
        1        1        1        1        0        0        0        0       20        0      926     1281     1283     1296     1297     1321     1323     1336     1337
     5178     5187     5230     5180     5286     5295     5338     5288     5181     5188     5233     5236
        1        1        1        1        0        0        0        0       20        0      927     1283     1284     1295     1296     1323     1324     1335     1336
     5185     5191     5227     5187     5293     5299     5335     5295     5188     5192     5229     5233
        1        1        1        1        0        0        0        0       20        0      928     1281     1282     1288     1283     1321     1322     1328     1323
     5177     5183     5186     5178     5285     5291     5294     5286     5181     5184     5206     5188
        1        1        1        1        0        0        0        0       20        0      929     1282     1286     1287     1288     1322     1326     1327     1328
     5182     5197     5200     5183     5290     5305     5308     5291     5184     5199     5203     5206
        1        1        1        1        0        0        0        0       20        0      930     1284     1285     1294     1295     1324     1325     1334     1335
     5189     5195     5224     5191     5297     5303     5332     5299     5192     5196     5226     5229
        1        1        1        1        0        0        0        0       20        0      931     1284     1289     1290     1285     1324     1329     1330     1325
     5190     5207     5193     5189     5298     5315     5301     5297     5192     5209     5212     5196
        1        1        1        1        0        0        0        0       20        0      932     1283     1288     1289     1284     1323     1328     1329     1324
     5186     5204     5190     5185     5294     5312     5298     5293     5188     5206     5209     5192
        1        1        1        1        0        0        0        0       20        0      933     1285     1290     1291     1292     1325     1330     1331     1332
     5193     5210     5213     5194     5301     5318     5321     5302     5196     5212     5216     5219
        1        1        1        1        0        0        0        0       20        0      934     1285     1292     1293     1294     1325     1332     1333     1334
     5194     5217     5220     5195     5302     5325     5328     5303     5196     5219     5223     5226
        1        1        1        1        0        0        0        0       20        0      935     1286     1298     1299     1287     1326     1338     1339     1327
     5198     5237     5201     5197     5306     5345     5309     5305     5199     5239     5242     5203
        1        1        1        1        0        0        0        0       20        0      936     1287     1299     1305     1307     1327     1339     1345     1347
     5201     5241     5255     5202     5309     5349     5363     5310     5203     5242     5256     5260
        1        1        1        1        0        0        0        0       20        0      937     1287     1307     1312     1288     1327     1347     1352     1328
     5202     5259     5205     5200     5310     5367     5313     5308     5203     5260     5270     5206
        1        1        1        1        0        0        0        0       20        0      938     1288     1312     1314     1289     1328     1352     1354     1329
     5205     5269     5208     5204     5313     5377     5316     5312     5206     5270     5274     5209
        1        1        1        1        0        0        0        0       20        0      939     1289     1314     1315     1290     1329     1354     1355     1330
     5208     5273     5211     5207     5316     5381     5319     5315     5209     5274     5275     5212
        1        1        1        1        0        0        0        0       20        0      940     1290     1315     1301     1291     1330     1355     1341     1331
     5211     5246     5214     5210     5319     5354     5322     5318     5212     5275     5247     5216
        1        1        1        1        0        0        0        0       20        0      941     1291     1301     1300     1302     1331     1341     1340     1342
     5214     5243     5244     5215     5322     5351     5352     5323     5216     5247     5245     5249
        1        1        1        1        0        0        0        0       20        0      942     1291     1302     1319     1292     1331     1342     1359     1332
     5215     5248     5218     5213     5323     5356     5326     5321     5216     5249     5283     5219
        1        1        1        1        0        0        0        0       20        0      943     1292     1319     1320     1293     1332     1359     1360     1333
     5218     5282     5222     5217     5326     5390     5330     5325     5219     5283     5284     5223
        1        1        1        1        0        0        0        0       20        0      944     1293     1320     1316     1318     1333     1360     1356     1358
     5222     5277     5276     5221     5330     5385     5384     5329     5223     5284     5278     5281
        1        1        1        1        0        0        0        0       20        0      945     1293     1318     1317     1294     1333     1358     1357     1334
     5221     5279     5225     5220     5329     5387     5333     5328     5223     5281     5280     5226
        1        1        1        1        0        0        0        0       20        0      946     1294     1317     1313     1295     1334     1357     1353     1335
     5225     5271     5228     5224     5333     5379     5336     5332     5226     5280     5272     5229
        1        1        1        1        0        0        0        0       20        0      947     1295     1313     1311     1296     1335     1353     1351     1336
     5228     5267     5232     5227     5336     5375     5340     5335     5229     5272     5268     5233
        1        1        1        1        0        0        0        0       20        0      948     1296     1311     1308     1309     1336     1351     1348     1349
     5232     5262     5261     5231     5340     5370     5369     5339     5233     5268     5263     5265
        1        1        1        1        0        0        0        0       20        0      949     1296     1309     1310     1297     1336     1349     1350     1337
     5231     5264     5235     5230     5339     5372     5343     5338     5233     5265     5266     5236
        1        1        1        1        0        0        0        0       20        0      950     1297     1310     1306     1298     1337     1350     1346     1338
     5235     5257     5238     5234     5343     5365     5346     5342     5236     5266     5258     5239
        1        1        1        1        0        0        0        0       20        0      951     1298     1306     1304     1299     1338     1346     1344     1339
     5238     5253     5240     5237     5346     5361     5348     5345     5239     5258     5254     5242
        1        1        1        1        0        0        0        0       20        0      952     1299     1304     1303     1305     1339     1344     1343     1345
     5240     5250     5251     5241     5348     5358     5359     5349     5242     5254     5252     5256
        1        1        1        1        0        0        0        0       20        0      953     1321     1337     1338     1326     1361     1377     1378     1366
     5288     5342     5306     5287     5396     5450     5414     5395     5289     5344     5347     5307
        1        1        1        1        0        0        0        0       20        0      954     1321     1323     1336     1337     1361     1363     1376     1377
     5286     5295     5338     5288     5394     5403     5446     5396     5289     5296     5341     5344
        1        1        1        1        0        0        0        0       20        0      955     1323     1324     1335     1336     1363     1364     1375     1376
     5293     5299     5335     5295     5401     5407     5443     5403     5296     5300     5337     5341
        1        1        1        1        0        0        0        0       20        0      956     1321     1322     1328     1323     1361     1362     1368     1363
     5285     5291     5294     5286     5393     5399     5402     5394     5289     5292     5314     5296
        1        1        1        1        0        0        0        0       20        0      957     1322     1326     1327     1328     1362     1366     1367     1368
     5290     5305     5308     5291     5398     5413     5416     5399     5292     5307     5311     5314
        1        1        1        1        0        0        0        0       20        0      958     1324     1325     1334     1335     1364     1365     1374     1375
     5297     5303     5332     5299     5405     5411     5440     5407     5300     5304     5334     5337
        1        1        1        1        0        0        0        0       20        0      959     1324     1329     1330     1325     1364     1369     1370     1365
     5298     5315     5301     5297     5406     5423     5409     5405     5300     5317     5320     5304
        1        1        1        1        0        0        0        0       20        0      960     1323     1328     1329     1324     1363     1368     1369     1364
     5294     5312     5298     5293     5402     5420     5406     5401     5296     5314     5317     5300
        1        1        1        1        0        0        0        0       20        0      961     1325     1330     1331     1332     1365     1370     1371     1372
     5301     5318     5321     5302     5409     5426     5429     5410     5304     5320     5324     5327
        1        1        1        1        0        0        0        0       20        0      962     1325     1332     1333     1334     1365     1372     1373     1374
     5302     5325     5328     5303     5410     5433     5436     5411     5304     5327     5331     5334
        1        1        1        1        0        0        0        0       20        0      963     1326     1338     1339     1327     1366     1378     1379     1367
     5306     5345     5309     5305     5414     5453     5417     5413     5307     5347     5350     5311
        1        1        1        1        0        0        0        0       20        0      964     1327     1339     1345     1347     1367     1379     1385     1387
     5309     5349     5363     5310     5417     5457     5471     5418     5311     5350     5364     5368
        1        1        1        1        0        0        0        0       20        0      965     1327     1347     1352     1328     1367     1387     1392     1368
     5310     5367     5313     5308     5418     5475     5421     5416     5311     5368     5378     5314
        1        1        1        1        0        0        0        0       20        0      966     1328     1352     1354     1329     1368     1392     1394     1369
     5313     5377     5316     5312     5421     5485     5424     5420     5314     5378     5382     5317
        1        1        1        1        0        0        0        0       20        0      967     1329     1354     1355     1330     1369     1394     1395     1370
     5316     5381     5319     5315     5424     5489     5427     5423     5317     5382     5383     5320
        1        1        1        1        0        0        0        0       20        0      968     1330     1355     1341     1331     1370     1395     1381     1371
     5319     5354     5322     5318     5427     5462     5430     5426     5320     5383     5355     5324
        1        1        1        1        0        0        0        0       20        0      969     1331     1341     1340     1342     1371     1381     1380     1382
     5322     5351     5352     5323     5430     5459     5460     5431     5324     5355     5353     5357
        1        1        1        1        0        0        0        0       20        0      970     1331     1342     1359     1332     1371     1382     1399     1372
     5323     5356     5326     5321     5431     5464     5434     5429     5324     5357     5391     5327
        1        1        1        1        0        0        0        0       20        0      971     1332     1359     1360     1333     1372     1399     1400     1373
     5326     5390     5330     5325     5434     5498     5438     5433     5327     5391     5392     5331
        1        1        1        1        0        0        0        0       20        0      972     1333     1360     1356     1358     1373     1400     1396     1398
     5330     5385     5384     5329     5438     5493     5492     5437     5331     5392     5386     5389
        1        1        1        1        0        0        0        0       20        0      973     1333     1358     1357     1334     1373     1398     1397     1374
     5329     5387     5333     5328     5437     5495     5441     5436     5331     5389     5388     5334
        1        1        1        1        0        0        0        0       20        0      974     1334     1357     1353     1335     1374     1397     1393     1375
     5333     5379     5336     5332     5441     5487     5444     5440     5334     5388     5380     5337
        1        1        1        1        0        0        0        0       20        0      975     1335     1353     1351     1336     1375     1393     1391     1376
     5336     5375     5340     5335     5444     5483     5448     5443     5337     5380     5376     5341
        1        1        1        1        0        0        0        0       20        0      976     1336     1351     1348     1349     1376     1391     1388     1389
     5340     5370     5369     5339     5448     5478     5477     5447     5341     5376     5371     5373
        1        1        1        1        0        0        0        0       20        0      977     1336     1349     1350     1337     1376     1389     1390     1377
     5339     5372     5343     5338     5447     5480     5451     5446     5341     5373     5374     5344
        1        1        1        1        0        0        0        0       20        0      978     1337     1350     1346     1338     1377     1390     1386     1378
     5343     5365     5346     5342     5451     5473     5454     5450     5344     5374     5366     5347
        1        1        1        1        0        0        0        0       20        0      979     1338     1346     1344     1339     1378     1386     1384     1379
     5346     5361     5348     5345     5454     5469     5456     5453     5347     5366     5362     5350
        1        1        1        1        0        0        0        0       20        0      980     1339     1344     1343     1345     1379     1384     1383     1385
     5348     5358     5359     5349     5456     5466     5467     5457     5350     5362     5360     5364
        1        1        1        1        0        0        0        0       20        0      981     1361     1377     1378     1366     1401     1417     1418     1406
     5396     5450     5414     5395     5504     5558     5522     5503     5397     5452     5455     5415
        1        1        1        1        0        0        0        0       20        0      982     1361     1363     1376     1377     1401     1403     1416     1417
     5394     5403     5446     5396     5502     5511     5554     5504     5397     5404     5449     5452
        1        1        1        1        0        0        0        0       20        0      983     1363     1364     1375     1376     1403     1404     1415     1416
     5401     5407     5443     5403     5509     5515     5551     5511     5404     5408     5445     5449
        1        1        1        1        0        0        0        0       20        0      984     1361     1362     1368     1363     1401     1402     1408     1403
     5393     5399     5402     5394     5501     5507     5510     5502     5397     5400     5422     5404
        1        1        1        1        0        0        0        0       20        0      985     1362     1366     1367     1368     1402     1406     1407     1408
     5398     5413     5416     5399     5506     5521     5524     5507     5400     5415     5419     5422
        1        1        1        1        0        0        0        0       20        0      986     1364     1365     1374     1375     1404     1405     1414     1415
     5405     5411     5440     5407     5513     5519     5548     5515     5408     5412     5442     5445
        1        1        1        1        0        0        0        0       20        0      987     1364     1369     1370     1365     1404     1409     1410     1405
     5406     5423     5409     5405     5514     5531     5517     5513     5408     5425     5428     5412
        1        1        1        1        0        0        0        0       20        0      988     1363     1368     1369     1364     1403     1408     1409     1404
     5402     5420     5406     5401     5510     5528     5514     5509     5404     5422     5425     5408
        1        1        1        1        0        0        0        0       20        0      989     1365     1370     1371     1372     1405     1410     1411     1412
     5409     5426     5429     5410     5517     5534     5537     5518     5412     5428     5432     5435
        1        1        1        1        0        0        0        0       20        0      990     1365     1372     1373     1374     1405     1412     1413     1414
     5410     5433     5436     5411     5518     5541     5544     5519     5412     5435     5439     5442
        1        1        1        1        0        0        0        0       20        0      991     1366     1378     1379     1367     1406     1418     1419     1407
     5414     5453     5417     5413     5522     5561     5525     5521     5415     5455     5458     5419
        1        1        1        1        0        0        0        0       20        0      992     1367     1379     1385     1387     1407     1419     1425     1427
     5417     5457     5471     5418     5525     5565     5579     5526     5419     5458     5472     5476
        1        1        1        1        0        0        0        0       20        0      993     1367     1387     1392     1368     1407     1427     1432     1408
     5418     5475     5421     5416     5526     5583     5529     5524     5419     5476     5486     5422
        1        1        1        1        0        0        0        0       20        0      994     1368     1392     1394     1369     1408     1432     1434     1409
     5421     5485     5424     5420     5529     5593     5532     5528     5422     5486     5490     5425
        1        1        1        1        0        0        0        0       20        0      995     1369     1394     1395     1370     1409     1434     1435     1410
     5424     5489     5427     5423     5532     5597     5535     5531     5425     5490     5491     5428
        1        1        1        1        0        0        0        0       20        0      996     1370     1395     1381     1371     1410     1435     1421     1411
     5427     5462     5430     5426     5535     5570     5538     5534     5428     5491     5463     5432
        1        1        1        1        0        0        0        0       20        0      997     1371     1381     1380     1382     1411     1421     1420     1422
     5430     5459     5460     5431     5538     5567     5568     5539     5432     5463     5461     5465
        1        1        1        1        0        0        0        0       20        0      998     1371     1382     1399     1372     1411     1422     1439     1412
     5431     5464     5434     5429     5539     5572     5542     5537     5432     5465     5499     5435
        1        1        1        1        0        0        0        0       20        0      999     1372     1399     1400     1373     1412     1439     1440     1413
     5434     5498     5438     5433     5542     5606     5546     5541     5435     5499     5500     5439
        1        1        1        1        0        0        0        0       20        0     1000     1373     1400     1396     1398     1413     1440     1436     1438
     5438     5493     5492     5437     5546     5601     5600     5545     5439     5500     5494     5497
        1        1        1        1        0        0        0        0       20        0     1001     1373     1398     1397     1374     1413     1438     1437     1414
     5437     5495     5441     5436     5545     5603     5549     5544     5439     5497     5496     5442
        1        1        1        1        0        0        0        0       20        0     1002     1374     1397     1393     1375     1414     1437     1433     1415
     5441     5487     5444     5440     5549     5595     5552     5548     5442     5496     5488     5445
        1        1        1        1        0        0        0        0       20        0     1003     1375     1393     1391     1376     1415     1433     1431     1416
     5444     5483     5448     5443     5552     5591     5556     5551     5445     5488     5484     5449
        1        1        1        1        0        0        0        0       20        0     1004     1376     1391     1388     1389     1416     1431     1428     1429
     5448     5478     5477     5447     5556     5586     5585     5555     5449     5484     5479     5481
        1        1        1        1        0        0        0        0       20        0     1005     1376     1389     1390     1377     1416     1429     1430     1417
     5447     5480     5451     5446     5555     5588     5559     5554     5449     5481     5482     5452
        1        1        1        1        0        0        0        0       20        0     1006     1377     1390     1386     1378     1417     1430     1426     1418
     5451     5473     5454     5450     5559     5581     5562     5558     5452     5482     5474     5455
        1        1        1        1        0        0        0        0       20        0     1007     1378     1386     1384     1379     1418     1426     1424     1419
     5454     5469     5456     5453     5562     5577     5564     5561     5455     5474     5470     5458
        1        1        1        1        0        0        0        0       20        0     1008     1379     1384     1383     1385     1419     1424     1423     1425
     5456     5466     5467     5457     5564     5574     5575     5565     5458     5470     5468     5472
        1        1        1        1        0        0        0        0       20        0     1009     1401     1417     1418     1406     1441     1457     1458     1446
     5504     5558     5522     5503     5612     5666     5630     5611     5505     5560     5563     5523
        1        1        1        1        0        0        0        0       20        0     1010     1401     1403     1416     1417     1441     1443     1456     1457
     5502     5511     5554     5504     5610     5619     5662     5612     5505     5512     5557     5560
        1        1        1        1        0        0        0        0       20        0     1011     1403     1404     1415     1416     1443     1444     1455     1456
     5509     5515     5551     5511     5617     5623     5659     5619     5512     5516     5553     5557
        1        1        1        1        0        0        0        0       20        0     1012     1401     1402     1408     1403     1441     1442     1448     1443
     5501     5507     5510     5502     5609     5615     5618     5610     5505     5508     5530     5512
        1        1        1        1        0        0        0        0       20        0     1013     1402     1406     1407     1408     1442     1446     1447     1448
     5506     5521     5524     5507     5614     5629     5632     5615     5508     5523     5527     5530
        1        1        1        1        0        0        0        0       20        0     1014     1404     1405     1414     1415     1444     1445     1454     1455
     5513     5519     5548     5515     5621     5627     5656     5623     5516     5520     5550     5553
        1        1        1        1        0        0        0        0       20        0     1015     1404     1409     1410     1405     1444     1449     1450     1445
     5514     5531     5517     5513     5622     5639     5625     5621     5516     5533     5536     5520
        1        1        1        1        0        0        0        0       20        0     1016     1403     1408     1409     1404     1443     1448     1449     1444
     5510     5528     5514     5509     5618     5636     5622     5617     5512     5530     5533     5516
        1        1        1        1        0        0        0        0       20        0     1017     1405     1410     1411     1412     1445     1450     1451     1452
     5517     5534     5537     5518     5625     5642     5645     5626     5520     5536     5540     5543
        1        1        1        1        0        0        0        0       20        0     1018     1405     1412     1413     1414     1445     1452     1453     1454
     5518     5541     5544     5519     5626     5649     5652     5627     5520     5543     5547     5550
        1        1        1        1        0        0        0        0       20        0     1019     1406     1418     1419     1407     1446     1458     1459     1447
     5522     5561     5525     5521     5630     5669     5633     5629     5523     5563     5566     5527
        1        1        1        1        0        0        0        0       20        0     1020     1407     1419     1425     1427     1447     1459     1465     1467
     5525     5565     5579     5526     5633     5673     5687     5634     5527     5566     5580     5584
        1        1        1        1        0        0        0        0       20        0     1021     1407     1427     1432     1408     1447     1467     1472     1448
     5526     5583     5529     5524     5634     5691     5637     5632     5527     5584     5594     5530
        1        1        1        1        0        0        0        0       20        0     1022     1408     1432     1434     1409     1448     1472     1474     1449
     5529     5593     5532     5528     5637     5701     5640     5636     5530     5594     5598     5533
        1        1        1        1        0        0        0        0       20        0     1023     1409     1434     1435     1410     1449     1474     1475     1450
     5532     5597     5535     5531     5640     5705     5643     5639     5533     5598     5599     5536
        1        1        1        1        0        0        0        0       20        0     1024     1410     1435     1421     1411     1450     1475     1461     1451
     5535     5570     5538     5534     5643     5678     5646     5642     5536     5599     5571     5540
        1        1        1        1        0        0        0        0       20        0     1025     1411     1421     1420     1422     1451     1461     1460     1462
     5538     5567     5568     5539     5646     5675     5676     5647     5540     5571     5569     5573
        1        1        1        1        0        0        0        0       20        0     1026     1411     1422     1439     1412     1451     1462     1479     1452
     5539     5572     5542     5537     5647     5680     5650     5645     5540     5573     5607     5543
        1        1        1        1        0        0        0        0       20        0     1027     1412     1439     1440     1413     1452     1479     1480     1453
     5542     5606     5546     5541     5650     5714     5654     5649     5543     5607     5608     5547
        1        1        1        1        0        0        0        0       20        0     1028     1413     1440     1436     1438     1453     1480     1476     1478
     5546     5601     5600     5545     5654     5709     5708     5653     5547     5608     5602     5605
        1        1        1        1        0        0        0        0       20        0     1029     1413     1438     1437     1414     1453     1478     1477     1454
     5545     5603     5549     5544     5653     5711     5657     5652     5547     5605     5604     5550
        1        1        1        1        0        0        0        0       20        0     1030     1414     1437     1433     1415     1454     1477     1473     1455
     5549     5595     5552     5548     5657     5703     5660     5656     5550     5604     5596     5553
        1        1        1        1        0        0        0        0       20        0     1031     1415     1433     1431     1416     1455     1473     1471     1456
     5552     5591     5556     5551     5660     5699     5664     5659     5553     5596     5592     5557
        1        1        1        1        0        0        0        0       20        0     1032     1416     1431     1428     1429     1456     1471     1468     1469
     5556     5586     5585     5555     5664     5694     5693     5663     5557     5592     5587     5589
        1        1        1        1        0        0        0        0       20        0     1033     1416     1429     1430     1417     1456     1469     1470     1457
     5555     5588     5559     5554     5663     5696     5667     5662     5557     5589     5590     5560
        1        1        1        1        0        0        0        0       20        0     1034     1417     1430     1426     1418     1457     1470     1466     1458
     5559     5581     5562     5558     5667     5689     5670     5666     5560     5590     5582     5563
        1        1        1        1        0        0        0        0       20        0     1035     1418     1426     1424     1419     1458     1466     1464     1459
     5562     5577     5564     5561     5670     5685     5672     5669     5563     5582     5578     5566
        1        1        1        1        0        0        0        0       20        0     1036     1419     1424     1423     1425     1459     1464     1463     1465
     5564     5574     5575     5565     5672     5682     5683     5673     5566     5578     5576     5580
        1        1        1        1        0        0        0        0       20        0     1037     1441     1457     1458     1446     1481     1497     1498     1486
     5612     5666     5630     5611     5720     5774     5738     5719     5613     5668     5671     5631
        1        1        1        1        0        0        0        0       20        0     1038     1441     1443     1456     1457     1481     1483     1496     1497
     5610     5619     5662     5612     5718     5727     5770     5720     5613     5620     5665     5668
        1        1        1        1        0        0        0        0       20        0     1039     1443     1444     1455     1456     1483     1484     1495     1496
     5617     5623     5659     5619     5725     5731     5767     5727     5620     5624     5661     5665
        1        1        1        1        0        0        0        0       20        0     1040     1441     1442     1448     1443     1481     1482     1488     1483
     5609     5615     5618     5610     5717     5723     5726     5718     5613     5616     5638     5620
        1        1        1        1        0        0        0        0       20        0     1041     1442     1446     1447     1448     1482     1486     1487     1488
     5614     5629     5632     5615     5722     5737     5740     5723     5616     5631     5635     5638
        1        1        1        1        0        0        0        0       20        0     1042     1444     1445     1454     1455     1484     1485     1494     1495
     5621     5627     5656     5623     5729     5735     5764     5731     5624     5628     5658     5661
        1        1        1        1        0        0        0        0       20        0     1043     1444     1449     1450     1445     1484     1489     1490     1485
     5622     5639     5625     5621     5730     5747     5733     5729     5624     5641     5644     5628
        1        1        1        1        0        0        0        0       20        0     1044     1443     1448     1449     1444     1483     1488     1489     1484
     5618     5636     5622     5617     5726     5744     5730     5725     5620     5638     5641     5624
        1        1        1        1        0        0        0        0       20        0     1045     1445     1450     1451     1452     1485     1490     1491     1492
     5625     5642     5645     5626     5733     5750     5753     5734     5628     5644     5648     5651
        1        1        1        1        0        0        0        0       20        0     1046     1445     1452     1453     1454     1485     1492     1493     1494
     5626     5649     5652     5627     5734     5757     5760     5735     5628     5651     5655     5658
        1        1        1        1        0        0        0        0       20        0     1047     1446     1458     1459     1447     1486     1498     1499     1487
     5630     5669     5633     5629     5738     5777     5741     5737     5631     5671     5674     5635
        1        1        1        1        0        0        0        0       20        0     1048     1447     1459     1465     1467     1487     1499     1505     1507
     5633     5673     5687     5634     5741     5781     5795     5742     5635     5674     5688     5692
        1        1        1        1        0        0        0        0       20        0     1049     1447     1467     1472     1448     1487     1507     1512     1488
     5634     5691     5637     5632     5742     5799     5745     5740     5635     5692     5702     5638
        1        1        1        1        0        0        0        0       20        0     1050     1448     1472     1474     1449     1488     1512     1514     1489
     5637     5701     5640     5636     5745     5809     5748     5744     5638     5702     5706     5641
        1        1        1        1        0        0        0        0       20        0     1051     1449     1474     1475     1450     1489     1514     1515     1490
     5640     5705     5643     5639     5748     5813     5751     5747     5641     5706     5707     5644
        1        1        1        1        0        0        0        0       20        0     1052     1450     1475     1461     1451     1490     1515     1501     1491
     5643     5678     5646     5642     5751     5786     5754     5750     5644     5707     5679     5648
        1        1        1        1        0        0        0        0       20        0     1053     1451     1461     1460     1462     1491     1501     1500     1502
     5646     5675     5676     5647     5754     5783     5784     5755     5648     5679     5677     5681
        1        1        1        1        0        0        0        0       20        0     1054     1451     1462     1479     1452     1491     1502     1519     1492
     5647     5680     5650     5645     5755     5788     5758     5753     5648     5681     5715     5651
        1        1        1        1        0        0        0        0       20        0     1055     1452     1479     1480     1453     1492     1519     1520     1493
     5650     5714     5654     5649     5758     5822     5762     5757     5651     5715     5716     5655
        1        1        1        1        0        0        0        0       20        0     1056     1453     1480     1476     1478     1493     1520     1516     1518
     5654     5709     5708     5653     5762     5817     5816     5761     5655     5716     5710     5713
        1        1        1        1        0        0        0        0       20        0     1057     1453     1478     1477     1454     1493     1518     1517     1494
     5653     5711     5657     5652     5761     5819     5765     5760     5655     5713     5712     5658
        1        1        1        1        0        0        0        0       20        0     1058     1454     1477     1473     1455     1494     1517     1513     1495
     5657     5703     5660     5656     5765     5811     5768     5764     5658     5712     5704     5661
        1        1        1        1        0        0        0        0       20        0     1059     1455     1473     1471     1456     1495     1513     1511     1496
     5660     5699     5664     5659     5768     5807     5772     5767     5661     5704     5700     5665
        1        1        1        1        0        0        0        0       20        0     1060     1456     1471     1468     1469     1496     1511     1508     1509
     5664     5694     5693     5663     5772     5802     5801     5771     5665     5700     5695     5697
        1        1        1        1        0        0        0        0       20        0     1061     1456     1469     1470     1457     1496     1509     1510     1497
     5663     5696     5667     5662     5771     5804     5775     5770     5665     5697     5698     5668
        1        1        1        1        0        0        0        0       20        0     1062     1457     1470     1466     1458     1497     1510     1506     1498
     5667     5689     5670     5666     5775     5797     5778     5774     5668     5698     5690     5671
        1        1        1        1        0        0        0        0       20        0     1063     1458     1466     1464     1459     1498     1506     1504     1499
     5670     5685     5672     5669     5778     5793     5780     5777     5671     5690     5686     5674
        1        1        1        1        0        0        0        0       20        0     1064     1459     1464     1463     1465     1499     1504     1503     1505
     5672     5682     5683     5673     5780     5790     5791     5781     5674     5686     5684     5688
        1        1        1        1        0        0        0        0       20        0     1065     1481     1497     1498     1486     1521     1537     1538     1526
     5720     5774     5738     5719     5828     5882     5846     5827     5721     5776     5779     5739
        1        1        1        1        0        0        0        0       20        0     1066     1481     1483     1496     1497     1521     1523     1536     1537
     5718     5727     5770     5720     5826     5835     5878     5828     5721     5728     5773     5776
        1        1        1        1        0        0        0        0       20        0     1067     1483     1484     1495     1496     1523     1524     1535     1536
     5725     5731     5767     5727     5833     5839     5875     5835     5728     5732     5769     5773
        1        1        1        1        0        0        0        0       20        0     1068     1481     1482     1488     1483     1521     1522     1528     1523
     5717     5723     5726     5718     5825     5831     5834     5826     5721     5724     5746     5728
        1        1        1        1        0        0        0        0       20        0     1069     1482     1486     1487     1488     1522     1526     1527     1528
     5722     5737     5740     5723     5830     5845     5848     5831     5724     5739     5743     5746
        1        1        1        1        0        0        0        0       20        0     1070     1484     1485     1494     1495     1524     1525     1534     1535
     5729     5735     5764     5731     5837     5843     5872     5839     5732     5736     5766     5769
        1        1        1        1        0        0        0        0       20        0     1071     1484     1489     1490     1485     1524     1529     1530     1525
     5730     5747     5733     5729     5838     5855     5841     5837     5732     5749     5752     5736
        1        1        1        1        0        0        0        0       20        0     1072     1483     1488     1489     1484     1523     1528     1529     1524
     5726     5744     5730     5725     5834     5852     5838     5833     5728     5746     5749     5732
        1        1        1        1        0        0        0        0       20        0     1073     1485     1490     1491     1492     1525     1530     1531     1532
     5733     5750     5753     5734     5841     5858     5861     5842     5736     5752     5756     5759
        1        1        1        1        0        0        0        0       20        0     1074     1485     1492     1493     1494     1525     1532     1533     1534
     5734     5757     5760     5735     5842     5865     5868     5843     5736     5759     5763     5766
        1        1        1        1        0        0        0        0       20        0     1075     1486     1498     1499     1487     1526     1538     1539     1527
     5738     5777     5741     5737     5846     5885     5849     5845     5739     5779     5782     5743
        1        1        1        1        0        0        0        0       20        0     1076     1487     1499     1505     1507     1527     1539     1545     1547
     5741     5781     5795     5742     5849     5889     5903     5850     5743     5782     5796     5800
        1        1        1        1        0        0        0        0       20        0     1077     1487     1507     1512     1488     1527     1547     1552     1528
     5742     5799     5745     5740     5850     5907     5853     5848     5743     5800     5810     5746
        1        1        1        1        0        0        0        0       20        0     1078     1488     1512     1514     1489     1528     1552     1554     1529
     5745     5809     5748     5744     5853     5917     5856     5852     5746     5810     5814     5749
        1        1        1        1        0        0        0        0       20        0     1079     1489     1514     1515     1490     1529     1554     1555     1530
     5748     5813     5751     5747     5856     5921     5859     5855     5749     5814     5815     5752
        1        1        1        1        0        0        0        0       20        0     1080     1490     1515     1501     1491     1530     1555     1541     1531
     5751     5786     5754     5750     5859     5894     5862     5858     5752     5815     5787     5756
        1        1        1        1        0        0        0        0       20        0     1081     1491     1501     1500     1502     1531     1541     1540     1542
     5754     5783     5784     5755     5862     5891     5892     5863     5756     5787     5785     5789
        1        1        1        1        0        0        0        0       20        0     1082     1491     1502     1519     1492     1531     1542     1559     1532
     5755     5788     5758     5753     5863     5896     5866     5861     5756     5789     5823     5759
        1        1        1        1        0        0        0        0       20        0     1083     1492     1519     1520     1493     1532     1559     1560     1533
     5758     5822     5762     5757     5866     5930     5870     5865     5759     5823     5824     5763
        1        1        1        1        0        0        0        0       20        0     1084     1493     1520     1516     1518     1533     1560     1556     1558
     5762     5817     5816     5761     5870     5925     5924     5869     5763     5824     5818     5821
        1        1        1        1        0        0        0        0       20        0     1085     1493     1518     1517     1494     1533     1558     1557     1534
     5761     5819     5765     5760     5869     5927     5873     5868     5763     5821     5820     5766
        1        1        1        1        0        0        0        0       20        0     1086     1494     1517     1513     1495     1534     1557     1553     1535
     5765     5811     5768     5764     5873     5919     5876     5872     5766     5820     5812     5769
        1        1        1        1        0        0        0        0       20        0     1087     1495     1513     1511     1496     1535     1553     1551     1536
     5768     5807     5772     5767     5876     5915     5880     5875     5769     5812     5808     5773
        1        1        1        1        0        0        0        0       20        0     1088     1496     1511     1508     1509     1536     1551     1548     1549
     5772     5802     5801     5771     5880     5910     5909     5879     5773     5808     5803     5805
        1        1        1        1        0        0        0        0       20        0     1089     1496     1509     1510     1497     1536     1549     1550     1537
     5771     5804     5775     5770     5879     5912     5883     5878     5773     5805     5806     5776
        1        1        1        1        0        0        0        0       20        0     1090     1497     1510     1506     1498     1537     1550     1546     1538
     5775     5797     5778     5774     5883     5905     5886     5882     5776     5806     5798     5779
        1        1        1        1        0        0        0        0       20        0     1091     1498     1506     1504     1499     1538     1546     1544     1539
     5778     5793     5780     5777     5886     5901     5888     5885     5779     5798     5794     5782
        1        1        1        1        0        0        0        0       20        0     1092     1499     1504     1503     1505     1539     1544     1543     1545
     5780     5790     5791     5781     5888     5898     5899     5889     5782     5794     5792     5796
        1        1        1        1        0        0        0        0       20        0     1093     1521     1537     1538     1526     1561     1577     1578     1566
     5828     5882     5846     5827     5936     5990     5954     5935     5829     5884     5887     5847
        1        1        1        1        0        0        0        0       20        0     1094     1521     1523     1536     1537     1561     1563     1576     1577
     5826     5835     5878     5828     5934     5943     5986     5936     5829     5836     5881     5884
        1        1        1        1        0        0        0        0       20        0     1095     1523     1524     1535     1536     1563     1564     1575     1576
     5833     5839     5875     5835     5941     5947     5983     5943     5836     5840     5877     5881
        1        1        1        1        0        0        0        0       20        0     1096     1521     1522     1528     1523     1561     1562     1568     1563
     5825     5831     5834     5826     5933     5939     5942     5934     5829     5832     5854     5836
        1        1        1        1        0        0        0        0       20        0     1097     1522     1526     1527     1528     1562     1566     1567     1568
     5830     5845     5848     5831     5938     5953     5956     5939     5832     5847     5851     5854
        1        1        1        1        0        0        0        0       20        0     1098     1524     1525     1534     1535     1564     1565     1574     1575
     5837     5843     5872     5839     5945     5951     5980     5947     5840     5844     5874     5877
        1        1        1        1        0        0        0        0       20        0     1099     1524     1529     1530     1525     1564     1569     1570     1565
     5838     5855     5841     5837     5946     5963     5949     5945     5840     5857     5860     5844
        1        1        1        1        0        0        0        0       20        0     1100     1523     1528     1529     1524     1563     1568     1569     1564
     5834     5852     5838     5833     5942     5960     5946     5941     5836     5854     5857     5840
        1        1        1        1        0        0        0        0       20        0     1101     1525     1530     1531     1532     1565     1570     1571     1572
     5841     5858     5861     5842     5949     5966     5969     5950     5844     5860     5864     5867
        1        1        1        1        0        0        0        0       20        0     1102     1525     1532     1533     1534     1565     1572     1573     1574
     5842     5865     5868     5843     5950     5973     5976     5951     5844     5867     5871     5874
        1        1        1        1        0        0        0        0       20        0     1103     1526     1538     1539     1527     1566     1578     1579     1567
     5846     5885     5849     5845     5954     5993     5957     5953     5847     5887     5890     5851
        1        1        1        1        0        0        0        0       20        0     1104     1527     1539     1545     1547     1567     1579     1585     1587
     5849     5889     5903     5850     5957     5997     6011     5958     5851     5890     5904     5908
        1        1        1        1        0        0        0        0       20        0     1105     1527     1547     1552     1528     1567     1587     1592     1568
     5850     5907     5853     5848     5958     6015     5961     5956     5851     5908     5918     5854
        1        1        1        1        0        0        0        0       20        0     1106     1528     1552     1554     1529     1568     1592     1594     1569
     5853     5917     5856     5852     5961     6025     5964     5960     5854     5918     5922     5857
        1        1        1        1        0        0        0        0       20        0     1107     1529     1554     1555     1530     1569     1594     1595     1570
     5856     5921     5859     5855     5964     6029     5967     5963     5857     5922     5923     5860
        1        1        1        1        0        0        0        0       20        0     1108     1530     1555     1541     1531     1570     1595     1581     1571
     5859     5894     5862     5858     5967     6002     5970     5966     5860     5923     5895     5864
        1        1        1        1        0        0        0        0       20        0     1109     1531     1541     1540     1542     1571     1581     1580     1582
     5862     5891     5892     5863     5970     5999     6000     5971     5864     5895     5893     5897
        1        1        1        1        0        0        0        0       20        0     1110     1531     1542     1559     1532     1571     1582     1599     1572
     5863     5896     5866     5861     5971     6004     5974     5969     5864     5897     5931     5867
        1        1        1        1        0        0        0        0       20        0     1111     1532     1559     1560     1533     1572     1599     1600     1573
     5866     5930     5870     5865     5974     6038     5978     5973     5867     5931     5932     5871
        1        1        1        1        0        0        0        0       20        0     1112     1533     1560     1556     1558     1573     1600     1596     1598
     5870     5925     5924     5869     5978     6033     6032     5977     5871     5932     5926     5929
        1        1        1        1        0        0        0        0       20        0     1113     1533     1558     1557     1534     1573     1598     1597     1574
     5869     5927     5873     5868     5977     6035     5981     5976     5871     5929     5928     5874
        1        1        1        1        0        0        0        0       20        0     1114     1534     1557     1553     1535     1574     1597     1593     1575
     5873     5919     5876     5872     5981     6027     5984     5980     5874     5928     5920     5877
        1        1        1        1        0        0        0        0       20        0     1115     1535     1553     1551     1536     1575     1593     1591     1576
     5876     5915     5880     5875     5984     6023     5988     5983     5877     5920     5916     5881
        1        1        1        1        0        0        0        0       20        0     1116     1536     1551     1548     1549     1576     1591     1588     1589
     5880     5910     5909     5879     5988     6018     6017     5987     5881     5916     5911     5913
        1        1        1        1        0        0        0        0       20        0     1117     1536     1549     1550     1537     1576     1589     1590     1577
     5879     5912     5883     5878     5987     6020     5991     5986     5881     5913     5914     5884
        1        1        1        1        0        0        0        0       20        0     1118     1537     1550     1546     1538     1577     1590     1586     1578
     5883     5905     5886     5882     5991     6013     5994     5990     5884     5914     5906     5887
        1        1        1        1        0        0        0        0       20        0     1119     1538     1546     1544     1539     1578     1586     1584     1579
     5886     5901     5888     5885     5994     6009     5996     5993     5887     5906     5902     5890
        1        1        1        1        0        0        0        0       20        0     1120     1539     1544     1543     1545     1579     1584     1583     1585
     5888     5898     5899     5889     5996     6006     6007     5997     5890     5902     5900     5904
        1        1        1        1        0        0        0        0       20        0     1121     1561     1577     1578     1566     1601     1617     1618     1606
     5936     5990     5954     5935     6044     6098     6062     6043     5937     5992     5995     5955
        1        1        1        1        0        0        0        0       20        0     1122     1561     1563     1576     1577     1601     1603     1616     1617
     5934     5943     5986     5936     6042     6051     6094     6044     5937     5944     5989     5992
        1        1        1        1        0        0        0        0       20        0     1123     1563     1564     1575     1576     1603     1604     1615     1616
     5941     5947     5983     5943     6049     6055     6091     6051     5944     5948     5985     5989
        1        1        1        1        0        0        0        0       20        0     1124     1561     1562     1568     1563     1601     1602     1608     1603
     5933     5939     5942     5934     6041     6047     6050     6042     5937     5940     5962     5944
        1        1        1        1        0        0        0        0       20        0     1125     1562     1566     1567     1568     1602     1606     1607     1608
     5938     5953     5956     5939     6046     6061     6064     6047     5940     5955     5959     5962
        1        1        1        1        0        0        0        0       20        0     1126     1564     1565     1574     1575     1604     1605     1614     1615
     5945     5951     5980     5947     6053     6059     6088     6055     5948     5952     5982     5985
        1        1        1        1        0        0        0        0       20        0     1127     1564     1569     1570     1565     1604     1609     1610     1605
     5946     5963     5949     5945     6054     6071     6057     6053     5948     5965     5968     5952
        1        1        1        1        0        0        0        0       20        0     1128     1563     1568     1569     1564     1603     1608     1609     1604
     5942     5960     5946     5941     6050     6068     6054     6049     5944     5962     5965     5948
        1        1        1        1        0        0        0        0       20        0     1129     1565     1570     1571     1572     1605     1610     1611     1612
     5949     5966     5969     5950     6057     6074     6077     6058     5952     5968     5972     5975
        1        1        1        1        0        0        0        0       20        0     1130     1565     1572     1573     1574     1605     1612     1613     1614
     5950     5973     5976     5951     6058     6081     6084     6059     5952     5975     5979     5982
        1        1        1        1        0        0        0        0       20        0     1131     1566     1578     1579     1567     1606     1618     1619     1607
     5954     5993     5957     5953     6062     6101     6065     6061     5955     5995     5998     5959
        1        1        1        1        0        0        0        0       20        0     1132     1567     1579     1585     1587     1607     1619     1625     1627
     5957     5997     6011     5958     6065     6105     6119     6066     5959     5998     6012     6016
        1        1        1        1        0        0        0        0       20        0     1133     1567     1587     1592     1568     1607     1627     1632     1608
     5958     6015     5961     5956     6066     6123     6069     6064     5959     6016     6026     5962
        1        1        1        1        0        0        0        0       20        0     1134     1568     1592     1594     1569     1608     1632     1634     1609
     5961     6025     5964     5960     6069     6133     6072     6068     5962     6026     6030     5965
        1        1        1        1        0        0        0        0       20        0     1135     1569     1594     1595     1570     1609     1634     1635     1610
     5964     6029     5967     5963     6072     6137     6075     6071     5965     6030     6031     5968
        1        1        1        1        0        0        0        0       20        0     1136     1570     1595     1581     1571     1610     1635     1621     1611
     5967     6002     5970     5966     6075     6110     6078     6074     5968     6031     6003     5972
        1        1        1        1        0        0        0        0       20        0     1137     1571     1581     1580     1582     1611     1621     1620     1622
     5970     5999     6000     5971     6078     6107     6108     6079     5972     6003     6001     6005
        1        1        1        1        0        0        0        0       20        0     1138     1571     1582     1599     1572     1611     1622     1639     1612
     5971     6004     5974     5969     6079     6112     6082     6077     5972     6005     6039     5975
        1        1        1        1        0        0        0        0       20        0     1139     1572     1599     1600     1573     1612     1639     1640     1613
     5974     6038     5978     5973     6082     6146     6086     6081     5975     6039     6040     5979
        1        1        1        1        0        0        0        0       20        0     1140     1573     1600     1596     1598     1613     1640     1636     1638
     5978     6033     6032     5977     6086     6141     6140     6085     5979     6040     6034     6037
        1        1        1        1        0        0        0        0       20        0     1141     1573     1598     1597     1574     1613     1638     1637     1614
     5977     6035     5981     5976     6085     6143     6089     6084     5979     6037     6036     5982
        1        1        1        1        0        0        0        0       20        0     1142     1574     1597     1593     1575     1614     1637     1633     1615
     5981     6027     5984     5980     6089     6135     6092     6088     5982     6036     6028     5985
        1        1        1        1        0        0        0        0       20        0     1143     1575     1593     1591     1576     1615     1633     1631     1616
     5984     6023     5988     5983     6092     6131     6096     6091     5985     6028     6024     5989
        1        1        1        1        0        0        0        0       20        0     1144     1576     1591     1588     1589     1616     1631     1628     1629
     5988     6018     6017     5987     6096     6126     6125     6095     5989     6024     6019     6021
        1        1        1        1        0        0        0        0       20        0     1145     1576     1589     1590     1577     1616     1629     1630     1617
     5987     6020     5991     5986     6095     6128     6099     6094     5989     6021     6022     5992
        1        1        1        1        0        0        0        0       20        0     1146     1577     1590     1586     1578     1617     1630     1626     1618
     5991     6013     5994     5990     6099     6121     6102     6098     5992     6022     6014     5995
        1        1        1        1        0        0        0        0       20        0     1147     1578     1586     1584     1579     1618     1626     1624     1619
     5994     6009     5996     5993     6102     6117     6104     6101     5995     6014     6010     5998
        1        1        1        1        0        0        0        0       20        0     1148     1579     1584     1583     1585     1619     1624     1623     1625
     5996     6006     6007     5997     6104     6114     6115     6105     5998     6010     6008     6012
        1        1        1        1        0        0        0        0       20        0     1149     1601     1617     1618     1606     1644     1652     1653     1658
     6044     6098     6062     6043     6159     6181     6184     6160     6045     6100     6103     6063
        1        1        1        1        0        0        0        0       20        0     1150     1601     1603     1616     1617     1644     1642     1651     1652
     6042     6051     6094     6044     6153     6155     6178     6159     6045     6052     6097     6100
        1        1        1        1        0        0        0        0       20        0     1151     1603     1604     1615     1616     1642     1643     1650     1651
     6049     6055     6091     6051     6152     6157     6176     6155     6052     6056     6093     6097
        1        1        1        1        0        0        0        0       20        0     1152     1601     1602     1608     1603     1644     1641     1646     1642
     6041     6047     6050     6042     6149     6150     6154     6153     6045     6048     6070     6052
        1        1        1        1        0        0        0        0       20        0     1153     1602     1606     1607     1608     1641     1658     1645     1646
     6046     6061     6064     6047     6151     6163     6161     6150     6048     6063     6067     6070
        1        1        1        1        0        0        0        0       20        0     1154     1604     1605     1614     1615     1643     1659     1649     1650
     6053     6059     6088     6055     6158     6174     6172     6157     6056     6060     6090     6093
        1        1        1        1        0        0        0        0       20        0     1155     1604     1609     1610     1605     1643     1647     1648     1659
     6054     6071     6057     6053     6156     6167     6170     6158     6056     6073     6076     6060
        1        1        1        1        0        0        0        0       20        0     1156     1603     1608     1609     1604     1642     1646     1647     1643
     6050     6068     6054     6049     6154     6165     6156     6152     6052     6070     6073     6056
        1        1        1        1        0        0        0        0       20        0     1157     1605     1610     1611     1612     1659     1648     1656     1655
     6057     6074     6077     6058     6170     6169     6188     6190     6060     6076     6080     6083
        1        1        1        1        0        0        0        0       20        0     1158     1605     1612     1613     1614     1659     1655     1657     1649
     6058     6081     6084     6059     6190     6189     6173     6174     6060     6083     6087     6090
        1        1        1        1        0        0        0        0       20        0     1159     1606     1618     1619     1607     1658     1653     1654     1645
     6062     6101     6065     6061     6184     6183     6162     6163     6063     6103     6106     6067
        1        1        1        1        0        0        0        0       20        0     1160     1607     1619     1625     1627     1645     1654     1660     1661
     6065     6105     6119     6066     6162     6186     6196     6164     6067     6106     6120     6124
        1        1        1        1        0        0        0        0       20        0     1161     1607     1627     1632     1608     1645     1661     1662     1646
     6066     6123     6069     6064     6164     6198     6166     6161     6067     6124     6134     6070
        1        1        1        1        0        0        0        0       20        0     1162     1608     1632     1634     1609     1646     1662     1663     1647
     6069     6133     6072     6068     6166     6199     6168     6165     6070     6134     6138     6073
        1        1        1        1        0        0        0        0       20        0     1163     1609     1634     1635     1610     1647     1663     1664     1648
     6072     6137     6075     6071     6168     6200     6171     6167     6073     6138     6139     6076
        1        1        1        1        0        0        0        0       20        0     1164     1610     1635     1621     1611     1648     1664     1665     1656
     6075     6110     6078     6074     6171     6201     6192     6169     6076     6139     6111     6080
        1        1        1        1        0        0        0        0       20        0     1165     1611     1621     1620     1622     1656     1665     1679     1673
     6078     6107     6108     6079     6192     6202     6213     6193     6080     6111     6109     6113
        1        1        1        1        0        0        0        0       20        0     1166     1611     1622     1639     1612     1656     1673     1674     1655
     6079     6112     6082     6077     6193     6212     6191     6188     6080     6113     6147     6083
        1        1        1        1        0        0        0        0       20        0     1167     1612     1639     1640     1613     1655     1674     1675     1657
     6082     6146     6086     6081     6191     6214     6195     6189     6083     6147     6148     6087
        1        1        1        1        0        0        0        0       20        0     1168     1613     1640     1636     1638     1657     1675     1680     1669
     6086     6141     6140     6085     6195     6215     6208     6194     6087     6148     6142     6145
        1        1        1        1        0        0        0        0       20        0     1169     1613     1638     1637     1614     1657     1669     1670     1649
     6085     6143     6089     6084     6194     6207     6175     6173     6087     6145     6144     6090
        1        1        1        1        0        0        0        0       20        0     1170     1614     1637     1633     1615     1649     1670     1671     1650
     6089     6135     6092     6088     6175     6209     6177     6172     6090     6144     6136     6093
        1        1        1        1        0        0        0        0       20        0     1171     1615     1633     1631     1616     1650     1671     1672     1651
     6092     6131     6096     6091     6177     6210     6180     6176     6093     6136     6132     6097
        1        1        1        1        0        0        0        0       20        0     1172     1616     1631     1628     1629     1651     1672     1678     1668
     6096     6126     6125     6095     6180     6211     6206     6179     6097     6132     6127     6129
        1        1        1        1        0        0        0        0       20        0     1173     1616     1629     1630     1617     1651     1668     1667     1652
     6095     6128     6099     6094     6179     6205     6182     6178     6097     6129     6130     6100
        1        1        1        1        0        0        0        0       20        0     1174     1617     1630     1626     1618     1652     1667     1666     1653
     6099     6121     6102     6098     6182     6203     6185     6181     6100     6130     6122     6103
        1        1        1        1        0        0        0        0       20        0     1175     1618     1626     1624     1619     1653     1666     1677     1654
     6102     6117     6104     6101     6185     6204     6187     6183     6103     6122     6118     6106
        1        1        1        1        0        0        0        0       20        0     1176     1619     1624     1623     1625     1654     1677     1676     1660
     6104     6114     6115     6105     6187     6216     6197     6186     6106     6118     6116     6120
        1        1        1        1        0        0        0        0       20        0     1177        1        2        6        6     1644     1641     1658     1658
     1681     1687        6     1683     6149     6151     1658     6160     1686     1690     1709     1709
        1        1        1        1        0        0        0        0       20        0     1178        1        6        2        2       41       46       42       42
     1683     1687        2     1681     1831     1834       42     1829     1685     1708     1689     1689
        1        1        1        1        0        0        0        0       20        0     1179       41       46       42       42       81       86       82       82
     1831     1834       42     1829     1939     1942       82     1937     1833     1851     1836     1836
        1        1        1        1        0        0        0        0       20        0     1180       81       86       82       82      121      126      122      122
     1939     1942       82     1937     2047     2050      122     2045     1941     1959     1944     1944
        1        1        1        1        0        0        0        0       20        0     1181      121      126      122      122      161      166      162      162
     2047     2050      122     2045     2155     2158      162     2153     2049     2067     2052     2052
        1        1        1        1        0        0        0        0       20        0     1182      161      166      162      162      201      206      202      202
     2155     2158      162     2153     2263     2266      202     2261     2157     2175     2160     2160
        1        1        1        1        0        0        0        0       20        0     1183      201      206      202      202      241      246      242      242
     2263     2266      202     2261     2371     2374      242     2369     2265     2283     2268     2268
        1        1        1        1        0        0        0        0       20        0     1184      241      246      242      242      281      286      282      282
     2371     2374      242     2369     2479     2482      282     2477     2373     2391     2376     2376
        1        1        1        1        0        0        0        0       20        0     1185      281      286      282      282      321      326      322      322
     2479     2482      282     2477     2587     2590      322     2585     2481     2499     2484     2484
        1        1        1        1        0        0        0        0       20        0     1186      321      326      322      322      361      366      362      362
     2587     2590      322     2585     2695     2698      362     2693     2589     2607     2592     2592
        1        1        1        1        0        0        0        0       20        0     1187      361      366      362      362      401      406      402      402
     2695     2698      362     2693     2803     2806      402     2801     2697     2715     2700     2700
        1        1        1        1        0        0        0        0       20        0     1188      401      406      402      402      441      446      442      442
     2803     2806      402     2801     2911     2914      442     2909     2805     2823     2808     2808
        1        1        1        1        0        0        0        0       20        0     1189      441      446      442      442      481      486      482      482
     2911     2914      442     2909     3019     3022      482     3017     2913     2931     2916     2916
        1        1        1        1        0        0        0        0       20        0     1190      481      486      482      482      521      526      522      522
     3019     3022      482     3017     3127     3130      522     3125     3021     3039     3024     3024
        1        1        1        1        0        0        0        0       20        0     1191      521      526      522      522      561      566      562      562
     3127     3130      522     3125     3235     3238      562     3233     3129     3147     3132     3132
        1        1        1        1        0        0        0        0       20        0     1192      561      566      562      562      601      606      602      602
     3235     3238      562     3233     3343     3346      602     3341     3237     3255     3240     3240
        1        1        1        1        0        0        0        0       20        0     1193      601      606      602      602      641      646      642      642
     3343     3346      602     3341     3451     3454      642     3449     3345     3363     3348     3348
        1        1        1        1        0        0        0        0       20        0     1194      641      646      642      642      681      686      682      682
     3451     3454      642     3449     3559     3562      682     3557     3453     3471     3456     3456
        1        1        1        1        0        0        0        0       20        0     1195      681      686      682      682      721      726      722      722
     3559     3562      682     3557     3667     3670      722     3665     3561     3579     3564     3564
        1        1        1        1        0        0        0        0       20        0     1196      721      726      722      722      761      766      762      762
     3667     3670      722     3665     3775     3778      762     3773     3669     3687     3672     3672
        1        1        1        1        0        0        0        0       20        0     1197      761      766      762      762      801      806      802      802
     3775     3778      762     3773     3883     3886      802     3881     3777     3795     3780     3780
        1        1        1        1        0        0        0        0       20        0     1198      801      806      802      802      841      846      842      842
     3883     3886      802     3881     3991     3994      842     3989     3885     3903     3888     3888
        1        1        1        1        0        0        0        0       20        0     1199      841      846      842      842      881      886      882      882
     3991     3994      842     3989     4099     4102      882     4097     3993     4011     3996     3996
        1        1        1        1        0        0        0        0       20        0     1200      881      886      882      882      921      926      922      922
     4099     4102      882     4097     4207     4210      922     4205     4101     4119     4104     4104
        1        1        1        1        0        0        0        0       20        0     1201      921      926      922      922      961      966      962      962
     4207     4210      922     4205     4315     4318      962     4313     4209     4227     4212     4212
        1        1        1        1        0        0        0        0       20        0     1202      961      966      962      962     1001     1006     1002     1002
     4315     4318      962     4313     4423     4426     1002     4421     4317     4335     4320     4320
        1        1        1        1        0        0        0        0       20        0     1203     1001     1006     1002     1002     1041     1046     1042     1042
     4423     4426     1002     4421     4531     4534     1042     4529     4425     4443     4428     4428
        1        1        1        1        0        0        0        0       20        0     1204     1041     1046     1042     1042     1081     1086     1082     1082
     4531     4534     1042     4529     4639     4642     1082     4637     4533     4551     4536     4536
        1        1        1        1        0        0        0        0       20        0     1205     1081     1086     1082     1082     1121     1126     1122     1122
     4639     4642     1082     4637     4747     4750     1122     4745     4641     4659     4644     4644
        1        1        1        1        0        0        0        0       20        0     1206     1121     1126     1122     1122     1161     1166     1162     1162
     4747     4750     1122     4745     4855     4858     1162     4853     4749     4767     4752     4752
        1        1        1        1        0        0        0        0       20        0     1207     1161     1166     1162     1162     1201     1206     1202     1202
     4855     4858     1162     4853     4963     4966     1202     4961     4857     4875     4860     4860
        1        1        1        1        0        0        0        0       20        0     1208     1201     1206     1202     1202     1241     1246     1242     1242
     4963     4966     1202     4961     5071     5074     1242     5069     4965     4983     4968     4968
        1        1        1        1        0        0        0        0       20        0     1209     1241     1246     1242     1242     1281     1286     1282     1282
     5071     5074     1242     5069     5179     5182     1282     5177     5073     5091     5076     5076
        1        1        1        1        0        0        0        0       20        0     1210     1281     1286     1282     1282     1321     1326     1322     1322
     5179     5182     1282     5177     5287     5290     1322     5285     5181     5199     5184     5184
        1        1        1        1        0        0        0        0       20        0     1211     1321     1326     1322     1322     1361     1366     1362     1362
     5287     5290     1322     5285     5395     5398     1362     5393     5289     5307     5292     5292
        1        1        1        1        0        0        0        0       20        0     1212     1361     1366     1362     1362     1401     1406     1402     1402
     5395     5398     1362     5393     5503     5506     1402     5501     5397     5415     5400     5400
        1        1        1        1        0        0        0        0       20        0     1213     1401     1406     1402     1402     1441     1446     1442     1442
     5503     5506     1402     5501     5611     5614     1442     5609     5505     5523     5508     5508
        1        1        1        1        0        0        0        0       20        0     1214     1441     1446     1442     1442     1481     1486     1482     1482
     5611     5614     1442     5609     5719     5722     1482     5717     5613     5631     5616     5616
        1        1        1        1        0        0        0        0       20        0     1215     1481     1486     1482     1482     1521     1526     1522     1522
     5719     5722     1482     5717     5827     5830     1522     5825     5721     5739     5724     5724
        1        1        1        1        0        0        0        0       20        0     1216     1521     1526     1522     1522     1561     1566     1562     1562
     5827     5830     1522     5825     5935     5938     1562     5933     5829     5847     5832     5832
        1        1        1        1        0        0        0        0       20        0     1217     1561     1566     1562     1562     1601     1606     1602     1602
     5935     5938     1562     5933     6043     6046     1602     6041     5937     5955     5940     5940
        1        1        1        1        0        0        0        0       20        0     1218     1601     1606     1602     1602     1644     1658     1641     1641
     6043     6046     1602     6041     6160     6151     1641     6149     6045     6063     6048     6048
-1
