!Elem types set prior to running
!ET,1,186
!keyo,1,2,1
!#Nodes = 2600
!#Elements = 468
!#Types = 1
!Z=0 is at mating face.  Part is in Positive Z.  Part is sym. about XY plane

nblock,3,,2860
(1i9,3e20.9e3)
        1     3.790535415E+00     4.602543276E-01     1.000000000E+00
        2     3.790535415E+00     4.602543276E-01     6.770833333E-01
        3     3.790535415E+00     4.602543276E-01    -1.346318339E-12
        4     2.978126622E+00     3.616100408E-01    -1.346318339E-12
        5     2.978126622E+00     3.616100408E-01     1.000000000E+00
        6     4.602944208E+00     5.588986144E-01     1.000000000E+00
        7     4.975282319E+00     6.041086462E-01     4.999910599E-01
        8     4.602944208E+00     5.588986144E-01    -1.346318339E-12
        9     5.415353001E+00     6.575429012E-01     1.000000000E+00
       10     6.227761794E+00     7.561871881E-01     1.000000000E+00
       11     5.489942384E+00     6.665996921E-01     5.000000000E-01
       12     6.227761794E+00     7.561871881E-01     5.000000000E-01
       13     6.227761794E+00     7.561871881E-01    -1.346318339E-12
       14     5.415353001E+00     6.575429012E-01    -1.346318339E-12
       15     3.707420616E+00     9.137971107E-01     1.000000000E+00
       16     3.707420616E+00     9.137971107E-01     6.770833333E-01
       17     3.707420616E+00     9.137971107E-01    -1.346318339E-12
       18     2.912825452E+00     7.179469929E-01    -1.346318339E-12
       19     2.912825452E+00     7.179469929E-01     1.000000000E+00
       20     4.502015779E+00     1.109647228E+00     1.000000000E+00
       21     4.866189658E+00     1.199408028E+00     4.999910599E-01
       22     4.502015779E+00     1.109647228E+00    -1.346318339E-12
       23     5.296610942E+00     1.305497346E+00     1.000000000E+00
       24     6.091206105E+00     1.501347464E+00     1.000000000E+00
       25     5.369564809E+00     1.323478860E+00     5.000000000E-01
       26     6.091206105E+00     1.501347464E+00     5.000000000E-01
       27     6.091206105E+00     1.501347464E+00    -1.346318339E-12
       28     5.296610942E+00     1.305497346E+00    -1.346318339E-12
       29     3.570243275E+00     1.354014674E+00     1.000000000E+00
       30     3.570243275E+00     1.354014674E+00     6.770833333E-01
       31     3.570243275E+00     1.354014674E+00    -1.346318339E-12
       32     2.805048728E+00     1.063814661E+00    -1.346318339E-12
       33     2.805048728E+00     1.063814661E+00     1.000000000E+00
       34     4.335437822E+00     1.644214687E+00     1.000000000E+00
       35     4.686136995E+00     1.777217340E+00     4.999910599E-01
       36     4.335437822E+00     1.644214687E+00    -1.346318339E-12
       37     5.100632369E+00     1.934414700E+00     1.000000000E+00
       38     5.865826915E+00     2.224614713E+00     1.000000000E+00
       39     5.170886888E+00     1.961058725E+00     5.000000000E-01
       40     5.865826915E+00     2.224614713E+00     5.000000000E-01
       41     5.865826915E+00     2.224614713E+00    -1.346318339E-12
       42     5.100632369E+00     1.934414700E+00    -1.346318339E-12
       43     3.381003748E+00     1.774487655E+00     1.000000000E+00
       44     3.381003748E+00     1.774487655E+00     6.770833333E-01
       45     3.381003748E+00     1.774487655E+00    -1.346318339E-12
       46     2.656368077E+00     1.394169516E+00    -1.346318339E-12
       47     2.656368077E+00     1.394169516E+00     1.000000000E+00
       48     4.105639419E+00     2.154805793E+00     1.000000000E+00
       49     4.437749902E+00     2.329110821E+00     4.999910599E-01
       50     4.105639419E+00     2.154805793E+00    -1.346318339E-12
       51     4.830275090E+00     2.535123932E+00     1.000000000E+00
       52     5.554910760E+00     2.915442071E+00     1.000000000E+00
       53     4.896805792E+00     2.570041939E+00     5.000000000E-01
       54     5.554910760E+00     2.915442071E+00     5.000000000E-01
       55     5.554910760E+00     2.915442071E+00    -1.346318339E-12
       56     4.830275090E+00     2.535123932E+00    -1.346318339E-12
       57     3.142461573E+00     2.169084610E+00     1.000000000E+00
       58     3.142461573E+00     2.169084610E+00     6.770833333E-01
       59     3.142461573E+00     2.169084610E+00    -1.346318339E-12
       60     2.468951598E+00     1.704194240E+00    -1.346318339E-12
       61     2.468951598E+00     1.704194240E+00     1.000000000E+00
       62     3.815971548E+00     2.633974979E+00     1.000000000E+00
       63     4.124650422E+00     2.847040622E+00     4.999910599E-01
       64     3.815971548E+00     2.633974979E+00    -1.346318339E-12
       65     4.489481523E+00     3.098865348E+00     1.000000000E+00
       66     5.162991498E+00     3.563755718E+00     1.000000000E+00
       67     4.551318241E+00     3.141548153E+00     5.000000000E-01
       68     5.162991498E+00     3.563755718E+00     5.000000000E-01
       69     5.162991498E+00     3.563755718E+00    -1.346318339E-12
       70     4.489481523E+00     3.098865348E+00    -1.346318339E-12
       71     2.858095232E+00     2.532051426E+00     1.000000000E+00
       72     2.858095232E+00     2.532051426E+00     6.770833333E-01
       73     2.858095232E+00     2.532051426E+00    -1.346318339E-12
       74     2.245532245E+00     1.989367975E+00    -1.346318339E-12
       75     2.245532245E+00     1.989367975E+00     1.000000000E+00
       76     3.470658219E+00     3.074734878E+00     1.000000000E+00
       77     3.751404252E+00     3.323454159E+00     4.999910599E-01
       78     3.470658219E+00     3.074734878E+00    -1.346318339E-12
       79     4.083221206E+00     3.617418330E+00     1.000000000E+00
       80     4.695784194E+00     4.160101782E+00     1.000000000E+00
       81     4.139462222E+00     3.667243522E+00     5.000000000E-01
       82     4.695784194E+00     4.160101782E+00     5.000000000E-01
       83     4.695784194E+00     4.160101782E+00    -1.346318339E-12
       84     4.083221206E+00     3.617418330E+00    -1.346318339E-12
       85     2.532051426E+00     2.858095232E+00     1.000000000E+00
       86     2.532051426E+00     2.858095232E+00     6.770833333E-01
       87     2.532051426E+00     2.858095232E+00    -1.346318339E-12
       88     1.989367975E+00     2.245532245E+00    -1.346318339E-12
       89     1.989367975E+00     2.245532245E+00     1.000000000E+00
       90     3.074734878E+00     3.470658219E+00     1.000000000E+00
       91     3.323454159E+00     3.751404252E+00     4.999910599E-01
       92     3.074734878E+00     3.470658219E+00    -1.346318339E-12
       93     3.617418330E+00     4.083221206E+00     1.000000000E+00
       94     4.160101782E+00     4.695784194E+00     1.000000000E+00
       95     3.667243522E+00     4.139462222E+00     5.000000000E-01
       96     4.160101782E+00     4.695784194E+00     5.000000000E-01
       97     4.160101782E+00     4.695784194E+00    -1.346318339E-12
       98     3.617418330E+00     4.083221206E+00    -1.346318339E-12
       99     2.169084610E+00     3.142461573E+00     1.000000000E+00
      100     2.169084610E+00     3.142461573E+00     6.770833333E-01
      101     2.169084610E+00     3.142461573E+00    -1.346318339E-12
      102     1.704194240E+00     2.468951598E+00    -1.346318339E-12
      103     1.704194240E+00     2.468951598E+00     1.000000000E+00
      104     2.633974979E+00     3.815971548E+00     1.000000000E+00
      105     2.847040622E+00     4.124650422E+00     4.999910599E-01
      106     2.633974979E+00     3.815971548E+00    -1.346318339E-12
      107     3.098865348E+00     4.489481523E+00     1.000000000E+00
      108     3.563755718E+00     5.162991498E+00     1.000000000E+00
      109     3.141548153E+00     4.551318241E+00     5.000000000E-01
      110     3.563755718E+00     5.162991498E+00     5.000000000E-01
      111     3.563755718E+00     5.162991498E+00    -1.346318339E-12
      112     3.098865348E+00     4.489481523E+00    -1.346318339E-12
      113     1.774487655E+00     3.381003748E+00     1.000000000E+00
      114     1.774487655E+00     3.381003748E+00     6.770833333E-01
      115     1.774487655E+00     3.381003748E+00    -1.346318339E-12
      116     1.394169516E+00     2.656368077E+00    -1.346318339E-12
      117     1.394169516E+00     2.656368077E+00     1.000000000E+00
      118     2.154805793E+00     4.105639419E+00     1.000000000E+00
      119     2.329110821E+00     4.437749902E+00     4.999910599E-01
      120     2.154805793E+00     4.105639419E+00    -1.346318339E-12
      121     2.535123932E+00     4.830275090E+00     1.000000000E+00
      122     2.915442071E+00     5.554910760E+00     1.000000000E+00
      123     2.570041939E+00     4.896805792E+00     5.000000000E-01
      124     2.915442071E+00     5.554910760E+00     5.000000000E-01
      125     2.915442071E+00     5.554910760E+00    -1.346318339E-12
      126     2.535123932E+00     4.830275090E+00    -1.346318339E-12
      127     1.354014674E+00     3.570243275E+00     1.000000000E+00
      128     1.354014674E+00     3.570243275E+00     6.770833333E-01
      129     1.354014674E+00     3.570243275E+00    -1.346318339E-12
      130     1.063814661E+00     2.805048728E+00    -1.346318339E-12
      131     1.063814661E+00     2.805048728E+00     1.000000000E+00
      132     1.644214687E+00     4.335437822E+00     1.000000000E+00
      133     1.777217340E+00     4.686136995E+00     4.999910599E-01
      134     1.644214687E+00     4.335437822E+00    -1.346318339E-12
      135     1.934414700E+00     5.100632369E+00     1.000000000E+00
      136     2.224614713E+00     5.865826915E+00     1.000000000E+00
      137     1.961058725E+00     5.170886888E+00     5.000000000E-01
      138     2.224614713E+00     5.865826915E+00     5.000000000E-01
      139     2.224614713E+00     5.865826915E+00    -1.346318339E-12
      140     1.934414700E+00     5.100632369E+00    -1.346318339E-12
      141     9.137971107E-01     3.707420616E+00     1.000000000E+00
      142     9.137971107E-01     3.707420616E+00     6.770833333E-01
      143     9.137971107E-01     3.707420616E+00    -1.346318339E-12
      144     7.179469929E-01     2.912825452E+00    -1.346318339E-12
      145     7.179469929E-01     2.912825452E+00     1.000000000E+00
      146     1.109647228E+00     4.502015779E+00     1.000000000E+00
      147     1.199408028E+00     4.866189658E+00     4.999910599E-01
      148     1.109647228E+00     4.502015779E+00    -1.346318339E-12
      149     1.305497346E+00     5.296610942E+00     1.000000000E+00
      150     1.501347464E+00     6.091206105E+00     1.000000000E+00
      151     1.323478860E+00     5.369564809E+00     5.000000000E-01
      152     1.501347464E+00     6.091206105E+00     5.000000000E-01
      153     1.501347464E+00     6.091206105E+00    -1.346318339E-12
      154     1.305497346E+00     5.296610942E+00    -1.346318339E-12
      155     4.602543276E-01     3.790535415E+00     1.000000000E+00
      156     4.602543276E-01     3.790535415E+00     6.770833333E-01
      157     4.602543276E-01     3.790535415E+00    -1.346318339E-12
      158     3.616100408E-01     2.978126622E+00    -1.346318339E-12
      159     3.616100408E-01     2.978126622E+00     1.000000000E+00
      160     5.588986144E-01     4.602944208E+00     1.000000000E+00
      161     6.041086462E-01     4.975282319E+00     4.999910599E-01
      162     5.588986144E-01     4.602944208E+00    -1.346318339E-12
      163     6.575429012E-01     5.415353001E+00     1.000000000E+00
      164     7.561871881E-01     6.227761794E+00     1.000000000E+00
      165     6.665996921E-01     5.489942384E+00     5.000000000E-01
      166     7.561871881E-01     6.227761794E+00     5.000000000E-01
      167     7.561871881E-01     6.227761794E+00    -1.346318339E-12
      168     6.575429012E-01     5.415353001E+00    -1.346318339E-12
      169     4.610569738E-14     3.818375673E+00     1.000000000E+00
      170     4.605148728E-14     3.818375673E+00     6.770833333E-01
      171     4.098284212E-14     3.818375673E+00    -1.346318339E-12
      172     4.512991543E-14     3.000000000E+00    -1.346318339E-12
      173     4.512991543E-14     3.000000000E+00     1.000000000E+00
      174     4.488596994E-14     4.636751346E+00     1.000000000E+00
      175     4.743384505E-14     5.011824160E+00     4.999910599E-01
      176     4.700016418E-14     4.636751346E+00    -1.346318339E-12
      177     4.792173602E-14     5.455127019E+00     1.000000000E+00
      178     5.719166460E-14     6.273502692E+00     1.000000000E+00
      179     4.808436635E-14     5.530264237E+00     5.000000000E-01
      180     4.895172809E-14     6.273502692E+00     5.000000000E-01
      181     4.054916125E-14     6.273502692E+00    -1.346318339E-12
      182     4.797594613E-14     5.455127019E+00    -1.346318339E-12
      183    -4.602543276E-01     3.790535415E+00     1.000000000E+00
      184    -4.602543276E-01     3.790535415E+00     6.770833333E-01
      185    -4.602543276E-01     3.790535415E+00    -1.346318339E-12
      186    -3.616100408E-01     2.978126622E+00    -1.346318339E-12
      187    -3.616100408E-01     2.978126622E+00     1.000000000E+00
      188    -5.588986144E-01     4.602944208E+00     1.000000000E+00
      189    -6.041086462E-01     4.975282319E+00     4.999910599E-01
      190    -5.588986144E-01     4.602944208E+00    -1.346318339E-12
      191    -6.575429012E-01     5.415353001E+00     1.000000000E+00
      192    -7.561871881E-01     6.227761794E+00     1.000000000E+00
      193    -6.665996921E-01     5.489942384E+00     5.000000000E-01
      194    -7.561871881E-01     6.227761794E+00     5.000000000E-01
      195    -7.561871881E-01     6.227761794E+00    -1.346318339E-12
      196    -6.575429012E-01     5.415353001E+00    -1.346318339E-12
      197    -9.137971107E-01     3.707420616E+00     1.000000000E+00
      198    -9.137971107E-01     3.707420616E+00     6.770833333E-01
      199    -9.137971107E-01     3.707420616E+00    -1.346318339E-12
      200    -7.179469929E-01     2.912825452E+00    -1.346318339E-12
      201    -7.179469929E-01     2.912825452E+00     1.000000000E+00
      202    -1.109647228E+00     4.502015779E+00     1.000000000E+00
      203    -1.199408028E+00     4.866189658E+00     4.999910599E-01
      204    -1.109647228E+00     4.502015779E+00    -1.346318339E-12
      205    -1.305497346E+00     5.296610942E+00     1.000000000E+00
      206    -1.501347464E+00     6.091206105E+00     1.000000000E+00
      207    -1.323478860E+00     5.369564809E+00     5.000000000E-01
      208    -1.501347464E+00     6.091206105E+00     5.000000000E-01
      209    -1.501347464E+00     6.091206105E+00    -1.346318339E-12
      210    -1.305497346E+00     5.296610942E+00    -1.346318339E-12
      211    -1.354014674E+00     3.570243275E+00     1.000000000E+00
      212    -1.354014674E+00     3.570243275E+00     6.770833333E-01
      213    -1.354014674E+00     3.570243275E+00    -1.346318339E-12
      214    -1.063814661E+00     2.805048728E+00    -1.346318339E-12
      215    -1.063814661E+00     2.805048728E+00     1.000000000E+00
      216    -1.644214687E+00     4.335437822E+00     1.000000000E+00
      217    -1.777217340E+00     4.686136995E+00     4.999910599E-01
      218    -1.644214687E+00     4.335437822E+00    -1.346318339E-12
      219    -1.934414700E+00     5.100632369E+00     1.000000000E+00
      220    -2.224614713E+00     5.865826915E+00     1.000000000E+00
      221    -1.961058725E+00     5.170886888E+00     5.000000000E-01
      222    -2.224614713E+00     5.865826915E+00     5.000000000E-01
      223    -2.224614713E+00     5.865826915E+00    -1.346318339E-12
      224    -1.934414700E+00     5.100632369E+00    -1.346318339E-12
      225    -1.774487655E+00     3.381003748E+00     1.000000000E+00
      226    -1.774487655E+00     3.381003748E+00     6.770833333E-01
      227    -1.774487655E+00     3.381003748E+00    -1.346318339E-12
      228    -1.394169516E+00     2.656368077E+00    -1.346318339E-12
      229    -1.394169516E+00     2.656368077E+00     1.000000000E+00
      230    -2.154805793E+00     4.105639419E+00     1.000000000E+00
      231    -2.329110821E+00     4.437749902E+00     4.999910599E-01
      232    -2.154805793E+00     4.105639419E+00    -1.346318339E-12
      233    -2.535123932E+00     4.830275090E+00     1.000000000E+00
      234    -2.915442071E+00     5.554910760E+00     1.000000000E+00
      235    -2.570041939E+00     4.896805792E+00     5.000000000E-01
      236    -2.915442071E+00     5.554910760E+00     5.000000000E-01
      237    -2.915442071E+00     5.554910760E+00    -1.346318339E-12
      238    -2.535123932E+00     4.830275090E+00    -1.346318339E-12
      239    -2.169084610E+00     3.142461573E+00     1.000000000E+00
      240    -2.169084610E+00     3.142461573E+00     6.770833333E-01
      241    -2.169084610E+00     3.142461573E+00    -1.346318339E-12
      242    -1.704194240E+00     2.468951598E+00    -1.346318339E-12
      243    -1.704194240E+00     2.468951598E+00     1.000000000E+00
      244    -2.633974979E+00     3.815971548E+00     1.000000000E+00
      245    -2.847040622E+00     4.124650422E+00     4.999910599E-01
      246    -2.633974979E+00     3.815971548E+00    -1.346318339E-12
      247    -3.098865348E+00     4.489481523E+00     1.000000000E+00
      248    -3.563755718E+00     5.162991498E+00     1.000000000E+00
      249    -3.141548153E+00     4.551318241E+00     5.000000000E-01
      250    -3.563755718E+00     5.162991498E+00     5.000000000E-01
      251    -3.563755718E+00     5.162991498E+00    -1.346318339E-12
      252    -3.098865348E+00     4.489481523E+00    -1.346318339E-12
      253    -2.532051426E+00     2.858095232E+00     1.000000000E+00
      254    -2.532051426E+00     2.858095232E+00     6.770833333E-01
      255    -2.532051426E+00     2.858095232E+00    -1.346318339E-12
      256    -1.989367975E+00     2.245532245E+00    -1.346318339E-12
      257    -1.989367975E+00     2.245532245E+00     1.000000000E+00
      258    -3.074734878E+00     3.470658219E+00     1.000000000E+00
      259    -3.323454159E+00     3.751404252E+00     4.999910599E-01
      260    -3.074734878E+00     3.470658219E+00    -1.346318339E-12
      261    -3.617418330E+00     4.083221206E+00     1.000000000E+00
      262    -4.160101782E+00     4.695784194E+00     1.000000000E+00
      263    -3.667243522E+00     4.139462222E+00     5.000000000E-01
      264    -4.160101782E+00     4.695784194E+00     5.000000000E-01
      265    -4.160101782E+00     4.695784194E+00    -1.346318339E-12
      266    -3.617418330E+00     4.083221206E+00    -1.346318339E-12
      267    -2.858095232E+00     2.532051426E+00     1.000000000E+00
      268    -2.858095232E+00     2.532051426E+00     6.770833333E-01
      269    -2.858095232E+00     2.532051426E+00    -1.346318339E-12
      270    -2.245532245E+00     1.989367975E+00    -1.346318339E-12
      271    -2.245532245E+00     1.989367975E+00     1.000000000E+00
      272    -3.470658219E+00     3.074734878E+00     1.000000000E+00
      273    -3.751404252E+00     3.323454159E+00     4.999910599E-01
      274    -3.470658219E+00     3.074734878E+00    -1.346318339E-12
      275    -4.083221206E+00     3.617418330E+00     1.000000000E+00
      276    -4.695784194E+00     4.160101782E+00     1.000000000E+00
      277    -4.139462222E+00     3.667243522E+00     5.000000000E-01
      278    -4.695784194E+00     4.160101782E+00     5.000000000E-01
      279    -4.695784194E+00     4.160101782E+00    -1.346318339E-12
      280    -4.083221206E+00     3.617418330E+00    -1.346318339E-12
      281    -3.142461573E+00     2.169084610E+00     1.000000000E+00
      282    -3.142461573E+00     2.169084610E+00     6.770833333E-01
      283    -3.142461573E+00     2.169084610E+00    -1.346318339E-12
      284    -2.468951598E+00     1.704194240E+00    -1.346318339E-12
      285    -2.468951598E+00     1.704194240E+00     1.000000000E+00
      286    -3.815971548E+00     2.633974979E+00     1.000000000E+00
      287    -4.124650422E+00     2.847040622E+00     4.999910599E-01
      288    -3.815971548E+00     2.633974979E+00    -1.346318339E-12
      289    -4.489481523E+00     3.098865348E+00     1.000000000E+00
      290    -5.162991498E+00     3.563755718E+00     1.000000000E+00
      291    -4.551318241E+00     3.141548153E+00     5.000000000E-01
      292    -5.162991498E+00     3.563755718E+00     5.000000000E-01
      293    -5.162991498E+00     3.563755718E+00    -1.346318339E-12
      294    -4.489481523E+00     3.098865348E+00    -1.346318339E-12
      295    -3.381003748E+00     1.774487655E+00     1.000000000E+00
      296    -3.381003748E+00     1.774487655E+00     6.770833333E-01
      297    -3.381003748E+00     1.774487655E+00    -1.346318339E-12
      298    -2.656368077E+00     1.394169516E+00    -1.346318339E-12
      299    -2.656368077E+00     1.394169516E+00     1.000000000E+00
      300    -4.105639419E+00     2.154805793E+00     1.000000000E+00
      301    -4.437749902E+00     2.329110821E+00     4.999910599E-01
      302    -4.105639419E+00     2.154805793E+00    -1.346318339E-12
      303    -4.830275090E+00     2.535123932E+00     1.000000000E+00
      304    -5.554910760E+00     2.915442071E+00     1.000000000E+00
      305    -4.896805792E+00     2.570041939E+00     5.000000000E-01
      306    -5.554910760E+00     2.915442071E+00     5.000000000E-01
      307    -5.554910760E+00     2.915442071E+00    -1.346318339E-12
      308    -4.830275090E+00     2.535123932E+00    -1.346318339E-12
      309    -3.570243275E+00     1.354014674E+00     1.000000000E+00
      310    -3.570243275E+00     1.354014674E+00     6.770833333E-01
      311    -3.570243275E+00     1.354014674E+00    -1.346318339E-12
      312    -2.805048728E+00     1.063814661E+00    -1.346318339E-12
      313    -2.805048728E+00     1.063814661E+00     1.000000000E+00
      314    -4.335437822E+00     1.644214687E+00     1.000000000E+00
      315    -4.686136995E+00     1.777217340E+00     4.999910599E-01
      316    -4.335437822E+00     1.644214687E+00    -1.346318339E-12
      317    -5.100632369E+00     1.934414700E+00     1.000000000E+00
      318    -5.865826915E+00     2.224614713E+00     1.000000000E+00
      319    -5.170886888E+00     1.961058725E+00     5.000000000E-01
      320    -5.865826915E+00     2.224614713E+00     5.000000000E-01
      321    -5.865826915E+00     2.224614713E+00    -1.346318339E-12
      322    -5.100632369E+00     1.934414700E+00    -1.346318339E-12
      323    -3.707420616E+00     9.137971107E-01     1.000000000E+00
      324    -3.707420616E+00     9.137971107E-01     6.770833333E-01
      325    -3.707420616E+00     9.137971107E-01    -1.346318339E-12
      326    -2.912825452E+00     7.179469929E-01    -1.346318339E-12
      327    -2.912825452E+00     7.179469929E-01     1.000000000E+00
      328    -4.502015779E+00     1.109647228E+00     1.000000000E+00
      329    -4.866189658E+00     1.199408028E+00     4.999910599E-01
      330    -4.502015779E+00     1.109647228E+00    -1.346318339E-12
      331    -5.296610942E+00     1.305497346E+00     1.000000000E+00
      332    -6.091206105E+00     1.501347464E+00     1.000000000E+00
      333    -5.369564809E+00     1.323478860E+00     5.000000000E-01
      334    -6.091206105E+00     1.501347464E+00     5.000000000E-01
      335    -6.091206105E+00     1.501347464E+00    -1.346318339E-12
      336    -5.296610942E+00     1.305497346E+00    -1.346318339E-12
      337    -3.790535415E+00     4.602543276E-01     1.000000000E+00
      338    -3.790535415E+00     4.602543276E-01     6.770833333E-01
      339    -3.790535415E+00     4.602543276E-01    -1.346318339E-12
      340    -2.978126622E+00     3.616100408E-01    -1.346318339E-12
      341    -2.978126622E+00     3.616100408E-01     1.000000000E+00
      342    -4.602944208E+00     5.588986144E-01     1.000000000E+00
      343    -4.975282319E+00     6.041086462E-01     4.999910599E-01
      344    -4.602944208E+00     5.588986144E-01    -1.346318339E-12
      345    -5.415353001E+00     6.575429012E-01     1.000000000E+00
      346    -6.227761794E+00     7.561871881E-01     1.000000000E+00
      347    -5.489942384E+00     6.665996921E-01     5.000000000E-01
      348    -6.227761794E+00     7.561871881E-01     5.000000000E-01
      349    -6.227761794E+00     7.561871881E-01    -1.346318339E-12
      350    -5.415353001E+00     6.575429012E-01    -1.346318339E-12
      351    -3.818375673E+00    -2.409639328E-14     1.000000000E+00
      352    -3.818375673E+00    -2.463849437E-14     6.770833333E-01
      353    -3.818375673E+00    -2.404218317E-14    -1.346318339E-12
      354    -3.000000000E+00    -1.897353802E-14    -1.346318339E-12
      355    -3.000000000E+00    -1.897353802E-14     1.000000000E+00
      356    -4.636751346E+00    -2.488243986E-14     1.000000000E+00
      357    -5.011824160E+00    -1.913616834E-14     4.999910599E-01
      358    -4.636751346E+00    -1.940721889E-14    -1.346318339E-12
      359    -5.455127019E+00    -2.276824562E-14     1.000000000E+00
      360    -6.273502692E+00    -2.385244779E-14     1.000000000E+00
      361    -5.530264237E+00    -2.141299291E-14     5.000000000E-01
      362    -6.273502692E+00    -2.640032290E-14     5.000000000E-01
      363    -6.273502692E+00    -2.829767670E-14    -1.346318339E-12
      364    -5.455127019E+00    -2.439454888E-14    -1.346318339E-12
      365    -3.790535415E+00    -4.602543276E-01     1.000000000E+00
      366    -3.790535415E+00    -4.602543276E-01     6.770833333E-01
      367    -3.790535415E+00    -4.602543276E-01    -1.346318339E-12
      368    -2.978126622E+00    -3.616100408E-01    -1.346318339E-12
      369    -2.978126622E+00    -3.616100408E-01     1.000000000E+00
      370    -4.602944208E+00    -5.588986144E-01     1.000000000E+00
      371    -4.975282319E+00    -6.041086462E-01     4.999910599E-01
      372    -4.602944208E+00    -5.588986144E-01    -1.346318339E-12
      373    -5.415353001E+00    -6.575429012E-01     1.000000000E+00
      374    -6.227761794E+00    -7.561871881E-01     1.000000000E+00
      375    -5.489942384E+00    -6.665996921E-01     5.000000000E-01
      376    -6.227761794E+00    -7.561871881E-01     5.000000000E-01
      377    -6.227761794E+00    -7.561871881E-01    -1.346318339E-12
      378    -5.415353001E+00    -6.575429012E-01    -1.346318339E-12
      379    -3.707420616E+00    -9.137971107E-01     1.000000000E+00
      380    -3.707420616E+00    -9.137971107E-01     6.770833333E-01
      381    -3.707420616E+00    -9.137971107E-01    -1.346318339E-12
      382    -2.912825452E+00    -7.179469929E-01    -1.346318339E-12
      383    -2.912825452E+00    -7.179469929E-01     1.000000000E+00
      384    -4.502015779E+00    -1.109647228E+00     1.000000000E+00
      385    -4.866189658E+00    -1.199408028E+00     4.999910599E-01
      386    -4.502015779E+00    -1.109647228E+00    -1.346318339E-12
      387    -5.296610942E+00    -1.305497346E+00     1.000000000E+00
      388    -6.091206105E+00    -1.501347464E+00     1.000000000E+00
      389    -5.369564809E+00    -1.323478860E+00     5.000000000E-01
      390    -6.091206105E+00    -1.501347464E+00     5.000000000E-01
      391    -6.091206105E+00    -1.501347464E+00    -1.346318339E-12
      392    -5.296610942E+00    -1.305497346E+00    -1.346318339E-12
      393    -3.570243275E+00    -1.354014674E+00     1.000000000E+00
      394    -3.570243275E+00    -1.354014674E+00     6.770833333E-01
      395    -3.570243275E+00    -1.354014674E+00    -1.346318339E-12
      396    -2.805048728E+00    -1.063814661E+00    -1.346318339E-12
      397    -2.805048728E+00    -1.063814661E+00     1.000000000E+00
      398    -4.335437822E+00    -1.644214687E+00     1.000000000E+00
      399    -4.686136995E+00    -1.777217340E+00     4.999910599E-01
      400    -4.335437822E+00    -1.644214687E+00    -1.346318339E-12
      401    -5.100632369E+00    -1.934414700E+00     1.000000000E+00
      402    -5.865826915E+00    -2.224614713E+00     1.000000000E+00
      403    -5.170886888E+00    -1.961058725E+00     5.000000000E-01
      404    -5.865826915E+00    -2.224614713E+00     5.000000000E-01
      405    -5.865826915E+00    -2.224614713E+00    -1.346318339E-12
      406    -5.100632369E+00    -1.934414700E+00    -1.346318339E-12
      407    -3.381003748E+00    -1.774487655E+00     1.000000000E+00
      408    -3.381003748E+00    -1.774487655E+00     6.770833333E-01
      409    -3.381003748E+00    -1.774487655E+00    -1.346318339E-12
      410    -2.656368077E+00    -1.394169516E+00    -1.346318339E-12
      411    -2.656368077E+00    -1.394169516E+00     1.000000000E+00
      412    -4.105639419E+00    -2.154805793E+00     1.000000000E+00
      413    -4.437749902E+00    -2.329110821E+00     4.999910599E-01
      414    -4.105639419E+00    -2.154805793E+00    -1.346318339E-12
      415    -4.830275090E+00    -2.535123932E+00     1.000000000E+00
      416    -5.554910760E+00    -2.915442071E+00     1.000000000E+00
      417    -4.896805792E+00    -2.570041939E+00     5.000000000E-01
      418    -5.554910760E+00    -2.915442071E+00     5.000000000E-01
      419    -5.554910760E+00    -2.915442071E+00    -1.346318339E-12
      420    -4.830275090E+00    -2.535123932E+00    -1.346318339E-12
      421    -3.142461573E+00    -2.169084610E+00     1.000000000E+00
      422    -3.142461573E+00    -2.169084610E+00     6.770833333E-01
      423    -3.142461573E+00    -2.169084610E+00    -1.346318339E-12
      424    -2.468951598E+00    -1.704194240E+00    -1.346318339E-12
      425    -2.468951598E+00    -1.704194240E+00     1.000000000E+00
      426    -3.815971548E+00    -2.633974979E+00     1.000000000E+00
      427    -4.124650422E+00    -2.847040622E+00     4.999910599E-01
      428    -3.815971548E+00    -2.633974979E+00    -1.346318339E-12
      429    -4.489481523E+00    -3.098865348E+00     1.000000000E+00
      430    -5.162991498E+00    -3.563755718E+00     1.000000000E+00
      431    -4.551318241E+00    -3.141548153E+00     5.000000000E-01
      432    -5.162991498E+00    -3.563755718E+00     5.000000000E-01
      433    -5.162991498E+00    -3.563755718E+00    -1.346318339E-12
      434    -4.489481523E+00    -3.098865348E+00    -1.346318339E-12
      435    -2.858095232E+00    -2.532051426E+00     1.000000000E+00
      436    -2.858095232E+00    -2.532051426E+00     6.770833333E-01
      437    -2.858095232E+00    -2.532051426E+00    -1.346318339E-12
      438    -2.245532245E+00    -1.989367975E+00    -1.346318339E-12
      439    -2.245532245E+00    -1.989367975E+00     1.000000000E+00
      440    -3.470658219E+00    -3.074734878E+00     1.000000000E+00
      441    -3.751404252E+00    -3.323454159E+00     4.999910599E-01
      442    -3.470658219E+00    -3.074734878E+00    -1.346318339E-12
      443    -4.083221206E+00    -3.617418330E+00     1.000000000E+00
      444    -4.695784194E+00    -4.160101782E+00     1.000000000E+00
      445    -4.139462222E+00    -3.667243522E+00     5.000000000E-01
      446    -4.695784194E+00    -4.160101782E+00     5.000000000E-01
      447    -4.695784194E+00    -4.160101782E+00    -1.346318339E-12
      448    -4.083221206E+00    -3.617418330E+00    -1.346318339E-12
      449    -2.532051426E+00    -2.858095232E+00     1.000000000E+00
      450    -2.532051426E+00    -2.858095232E+00     6.770833333E-01
      451    -2.532051426E+00    -2.858095232E+00    -1.346318339E-12
      452    -1.989367975E+00    -2.245532245E+00    -1.346318339E-12
      453    -1.989367975E+00    -2.245532245E+00     1.000000000E+00
      454    -3.074734878E+00    -3.470658219E+00     1.000000000E+00
      455    -3.323454159E+00    -3.751404252E+00     4.999910599E-01
      456    -3.074734878E+00    -3.470658219E+00    -1.346318339E-12
      457    -3.617418330E+00    -4.083221206E+00     1.000000000E+00
      458    -4.160101782E+00    -4.695784194E+00     1.000000000E+00
      459    -3.667243522E+00    -4.139462222E+00     5.000000000E-01
      460    -4.160101782E+00    -4.695784194E+00     5.000000000E-01
      461    -4.160101782E+00    -4.695784194E+00    -1.346318339E-12
      462    -3.617418330E+00    -4.083221206E+00    -1.346318339E-12
      463    -2.169084610E+00    -3.142461573E+00     1.000000000E+00
      464    -2.169084610E+00    -3.142461573E+00     6.770833333E-01
      465    -2.169084610E+00    -3.142461573E+00    -1.346318339E-12
      466    -1.704194240E+00    -2.468951598E+00    -1.346318339E-12
      467    -1.704194240E+00    -2.468951598E+00     1.000000000E+00
      468    -2.633974979E+00    -3.815971548E+00     1.000000000E+00
      469    -2.847040622E+00    -4.124650422E+00     4.999910599E-01
      470    -2.633974979E+00    -3.815971548E+00    -1.346318339E-12
      471    -3.098865348E+00    -4.489481523E+00     1.000000000E+00
      472    -3.563755718E+00    -5.162991498E+00     1.000000000E+00
      473    -3.141548153E+00    -4.551318241E+00     5.000000000E-01
      474    -3.563755718E+00    -5.162991498E+00     5.000000000E-01
      475    -3.563755718E+00    -5.162991498E+00    -1.346318339E-12
      476    -3.098865348E+00    -4.489481523E+00    -1.346318339E-12
      477    -1.774487655E+00    -3.381003748E+00     1.000000000E+00
      478    -1.774487655E+00    -3.381003748E+00     6.770833333E-01
      479    -1.774487655E+00    -3.381003748E+00    -1.346318339E-12
      480    -1.394169516E+00    -2.656368077E+00    -1.346318339E-12
      481    -1.394169516E+00    -2.656368077E+00     1.000000000E+00
      482    -2.154805793E+00    -4.105639419E+00     1.000000000E+00
      483    -2.329110821E+00    -4.437749902E+00     4.999910599E-01
      484    -2.154805793E+00    -4.105639419E+00    -1.346318339E-12
      485    -2.535123932E+00    -4.830275090E+00     1.000000000E+00
      486    -2.915442071E+00    -5.554910760E+00     1.000000000E+00
      487    -2.570041939E+00    -4.896805792E+00     5.000000000E-01
      488    -2.915442071E+00    -5.554910760E+00     5.000000000E-01
      489    -2.915442071E+00    -5.554910760E+00    -1.346318339E-12
      490    -2.535123932E+00    -4.830275090E+00    -1.346318339E-12
      491    -1.354014674E+00    -3.570243275E+00     1.000000000E+00
      492    -1.354014674E+00    -3.570243275E+00     6.770833333E-01
      493    -1.354014674E+00    -3.570243275E+00    -1.346318339E-12
      494    -1.063814661E+00    -2.805048728E+00    -1.346318339E-12
      495    -1.063814661E+00    -2.805048728E+00     1.000000000E+00
      496    -1.644214687E+00    -4.335437822E+00     1.000000000E+00
      497    -1.777217340E+00    -4.686136995E+00     4.999910599E-01
      498    -1.644214687E+00    -4.335437822E+00    -1.346318339E-12
      499    -1.934414700E+00    -5.100632369E+00     1.000000000E+00
      500    -2.224614713E+00    -5.865826915E+00     1.000000000E+00
      501    -1.961058725E+00    -5.170886888E+00     5.000000000E-01
      502    -2.224614713E+00    -5.865826915E+00     5.000000000E-01
      503    -2.224614713E+00    -5.865826915E+00    -1.346318339E-12
      504    -1.934414700E+00    -5.100632369E+00    -1.346318339E-12
      505    -9.137971107E-01    -3.707420616E+00     1.000000000E+00
      506    -9.137971107E-01    -3.707420616E+00     6.770833333E-01
      507    -9.137971107E-01    -3.707420616E+00    -1.346318339E-12
      508    -7.179469929E-01    -2.912825452E+00    -1.346318339E-12
      509    -7.179469929E-01    -2.912825452E+00     1.000000000E+00
      510    -1.109647228E+00    -4.502015779E+00     1.000000000E+00
      511    -1.199408028E+00    -4.866189658E+00     4.999910599E-01
      512    -1.109647228E+00    -4.502015779E+00    -1.346318339E-12
      513    -1.305497346E+00    -5.296610942E+00     1.000000000E+00
      514    -1.501347464E+00    -6.091206105E+00     1.000000000E+00
      515    -1.323478860E+00    -5.369564809E+00     5.000000000E-01
      516    -1.501347464E+00    -6.091206105E+00     5.000000000E-01
      517    -1.501347464E+00    -6.091206105E+00    -1.346318339E-12
      518    -1.305497346E+00    -5.296610942E+00    -1.346318339E-12
      519    -4.602543276E-01    -3.790535415E+00     1.000000000E+00
      520    -4.602543276E-01    -3.790535415E+00     6.770833333E-01
      521    -4.602543276E-01    -3.790535415E+00    -1.346318339E-12
      522    -3.616100408E-01    -2.978126622E+00    -1.346318339E-12
      523    -3.616100408E-01    -2.978126622E+00     1.000000000E+00
      524    -5.588986144E-01    -4.602944208E+00     1.000000000E+00
      525    -6.041086462E-01    -4.975282319E+00     4.999910599E-01
      526    -5.588986144E-01    -4.602944208E+00    -1.346318339E-12
      527    -6.575429012E-01    -5.415353001E+00     1.000000000E+00
      528    -7.561871881E-01    -6.227761794E+00     1.000000000E+00
      529    -6.665996921E-01    -5.489942384E+00     5.000000000E-01
      530    -7.561871881E-01    -6.227761794E+00     5.000000000E-01
      531    -7.561871881E-01    -6.227761794E+00    -1.346318339E-12
      532    -6.575429012E-01    -5.415353001E+00    -1.346318339E-12
      533     3.664603343E-14    -3.818375673E+00     1.000000000E+00
      534     3.661892838E-14    -3.818375673E+00     6.770833333E-01
      535     3.661892838E-14    -3.818375673E+00    -1.346318339E-12
      536     3.770313055E-14    -3.000000000E+00    -1.346318339E-12
      537     3.770313055E-14    -3.000000000E+00     1.000000000E+00
      538     3.767602549E-14    -4.636751346E+00     1.000000000E+00
      539     4.846383711E-14    -5.011824160E+00     4.999910599E-01
      540     3.550762115E-14    -4.636751346E+00    -1.346318339E-12
      541     2.721347453E-14    -5.455127019E+00     1.000000000E+00
      542     5.009014037E-14    -6.273502692E+00     1.000000000E+00
      543     3.436920887E-14    -5.530264237E+00     5.000000000E-01
      544     3.339342691E-14    -6.273502692E+00     5.000000000E-01
      545     8.294146620E-15    -6.273502692E+00    -1.346318339E-12
      546     4.900593820E-14    -5.455127019E+00    -1.346318339E-12
      547     4.602543276E-01    -3.790535415E+00     1.000000000E+00
      548     4.602543276E-01    -3.790535415E+00     6.770833333E-01
      549     4.602543276E-01    -3.790535415E+00    -1.346318339E-12
      550     3.616100408E-01    -2.978126622E+00    -1.346318339E-12
      551     3.616100408E-01    -2.978126622E+00     1.000000000E+00
      552     5.588986144E-01    -4.602944208E+00     1.000000000E+00
      553     6.041086462E-01    -4.975282319E+00     4.999910599E-01
      554     5.588986144E-01    -4.602944208E+00    -1.346318339E-12
      555     6.575429012E-01    -5.415353001E+00     1.000000000E+00
      556     7.561871881E-01    -6.227761794E+00     1.000000000E+00
      557     6.665996921E-01    -5.489942384E+00     5.000000000E-01
      558     7.561871881E-01    -6.227761794E+00     5.000000000E-01
      559     7.561871881E-01    -6.227761794E+00    -1.346318339E-12
      560     6.575429012E-01    -5.415353001E+00    -1.346318339E-12
      561     9.137971107E-01    -3.707420616E+00     1.000000000E+00
      562     9.137971107E-01    -3.707420616E+00     6.770833333E-01
      563     9.137971107E-01    -3.707420616E+00    -1.346318339E-12
      564     7.179469929E-01    -2.912825452E+00    -1.346318339E-12
      565     7.179469929E-01    -2.912825452E+00     1.000000000E+00
      566     1.109647228E+00    -4.502015779E+00     1.000000000E+00
      567     1.199408028E+00    -4.866189658E+00     4.999910599E-01
      568     1.109647228E+00    -4.502015779E+00    -1.346318339E-12
      569     1.305497346E+00    -5.296610942E+00     1.000000000E+00
      570     1.501347464E+00    -6.091206105E+00     1.000000000E+00
      571     1.323478860E+00    -5.369564809E+00     5.000000000E-01
      572     1.501347464E+00    -6.091206105E+00     5.000000000E-01
      573     1.501347464E+00    -6.091206105E+00    -1.346318339E-12
      574     1.305497346E+00    -5.296610942E+00    -1.346318339E-12
      575     1.354014674E+00    -3.570243275E+00     1.000000000E+00
      576     1.354014674E+00    -3.570243275E+00     6.770833333E-01
      577     1.354014674E+00    -3.570243275E+00    -1.346318339E-12
      578     1.063814661E+00    -2.805048728E+00    -1.346318339E-12
      579     1.063814661E+00    -2.805048728E+00     1.000000000E+00
      580     1.644214687E+00    -4.335437822E+00     1.000000000E+00
      581     1.777217340E+00    -4.686136995E+00     4.999910599E-01
      582     1.644214687E+00    -4.335437822E+00    -1.346318339E-12
      583     1.934414700E+00    -5.100632369E+00     1.000000000E+00
      584     2.224614713E+00    -5.865826915E+00     1.000000000E+00
      585     1.961058725E+00    -5.170886888E+00     5.000000000E-01
      586     2.224614713E+00    -5.865826915E+00     5.000000000E-01
      587     2.224614713E+00    -5.865826915E+00    -1.346318339E-12
      588     1.934414700E+00    -5.100632369E+00    -1.346318339E-12
      589     1.774487655E+00    -3.381003748E+00     1.000000000E+00
      590     1.774487655E+00    -3.381003748E+00     6.770833333E-01
      591     1.774487655E+00    -3.381003748E+00    -1.346318339E-12
      592     1.394169516E+00    -2.656368077E+00    -1.346318339E-12
      593     1.394169516E+00    -2.656368077E+00     1.000000000E+00
      594     2.154805793E+00    -4.105639419E+00     1.000000000E+00
      595     2.329110821E+00    -4.437749902E+00     4.999910599E-01
      596     2.154805793E+00    -4.105639419E+00    -1.346318339E-12
      597     2.535123932E+00    -4.830275090E+00     1.000000000E+00
      598     2.915442071E+00    -5.554910760E+00     1.000000000E+00
      599     2.570041939E+00    -4.896805792E+00     5.000000000E-01
      600     2.915442071E+00    -5.554910760E+00     5.000000000E-01
      601     2.915442071E+00    -5.554910760E+00    -1.346318339E-12
      602     2.535123932E+00    -4.830275090E+00    -1.346318339E-12
      603     2.169084610E+00    -3.142461573E+00     1.000000000E+00
      604     2.169084610E+00    -3.142461573E+00     6.770833333E-01
      605     2.169084610E+00    -3.142461573E+00    -1.346318339E-12
      606     1.704194240E+00    -2.468951598E+00    -1.346318339E-12
      607     1.704194240E+00    -2.468951598E+00     1.000000000E+00
      608     2.633974979E+00    -3.815971548E+00     1.000000000E+00
      609     2.847040622E+00    -4.124650422E+00     4.999910599E-01
      610     2.633974979E+00    -3.815971548E+00    -1.346318339E-12
      611     3.098865348E+00    -4.489481523E+00     1.000000000E+00
      612     3.563755718E+00    -5.162991498E+00     1.000000000E+00
      613     3.141548153E+00    -4.551318241E+00     5.000000000E-01
      614     3.563755718E+00    -5.162991498E+00     5.000000000E-01
      615     3.563755718E+00    -5.162991498E+00    -1.346318339E-12
      616     3.098865348E+00    -4.489481523E+00    -1.346318339E-12
      617     2.532051426E+00    -2.858095232E+00     1.000000000E+00
      618     2.532051426E+00    -2.858095232E+00     6.770833333E-01
      619     2.532051426E+00    -2.858095232E+00    -1.346318339E-12
      620     1.989367975E+00    -2.245532245E+00    -1.346318339E-12
      621     1.989367975E+00    -2.245532245E+00     1.000000000E+00
      622     3.074734878E+00    -3.470658219E+00     1.000000000E+00
      623     3.323454159E+00    -3.751404252E+00     4.999910599E-01
      624     3.074734878E+00    -3.470658219E+00    -1.346318339E-12
      625     3.617418330E+00    -4.083221206E+00     1.000000000E+00
      626     4.160101782E+00    -4.695784194E+00     1.000000000E+00
      627     3.667243522E+00    -4.139462222E+00     5.000000000E-01
      628     4.160101782E+00    -4.695784194E+00     5.000000000E-01
      629     4.160101782E+00    -4.695784194E+00    -1.346318339E-12
      630     3.617418330E+00    -4.083221206E+00    -1.346318339E-12
      631     2.858095232E+00    -2.532051426E+00     1.000000000E+00
      632     2.858095232E+00    -2.532051426E+00     6.770833333E-01
      633     2.858095232E+00    -2.532051426E+00    -1.346318339E-12
      634     2.245532245E+00    -1.989367975E+00    -1.346318339E-12
      635     2.245532245E+00    -1.989367975E+00     1.000000000E+00
      636     3.470658219E+00    -3.074734878E+00     1.000000000E+00
      637     3.751404252E+00    -3.323454159E+00     4.999910599E-01
      638     3.470658219E+00    -3.074734878E+00    -1.346318339E-12
      639     4.083221206E+00    -3.617418330E+00     1.000000000E+00
      640     4.695784194E+00    -4.160101782E+00     1.000000000E+00
      641     4.139462222E+00    -3.667243522E+00     5.000000000E-01
      642     4.695784194E+00    -4.160101782E+00     5.000000000E-01
      643     4.695784194E+00    -4.160101782E+00    -1.346318339E-12
      644     4.083221206E+00    -3.617418330E+00    -1.346318339E-12
      645     3.142461573E+00    -2.169084610E+00     1.000000000E+00
      646     3.142461573E+00    -2.169084610E+00     6.770833333E-01
      647     3.142461573E+00    -2.169084610E+00    -1.346318339E-12
      648     2.468951598E+00    -1.704194240E+00    -1.346318339E-12
      649     2.468951598E+00    -1.704194240E+00     1.000000000E+00
      650     3.815971548E+00    -2.633974979E+00     1.000000000E+00
      651     4.124650422E+00    -2.847040622E+00     4.999910599E-01
      652     3.815971548E+00    -2.633974979E+00    -1.346318339E-12
      653     4.489481523E+00    -3.098865348E+00     1.000000000E+00
      654     5.162991498E+00    -3.563755718E+00     1.000000000E+00
      655     4.551318241E+00    -3.141548153E+00     5.000000000E-01
      656     5.162991498E+00    -3.563755718E+00     5.000000000E-01
      657     5.162991498E+00    -3.563755718E+00    -1.346318339E-12
      658     4.489481523E+00    -3.098865348E+00    -1.346318339E-12
      659     3.381003748E+00    -1.774487655E+00     1.000000000E+00
      660     3.381003748E+00    -1.774487655E+00     6.770833333E-01
      661     3.381003748E+00    -1.774487655E+00    -1.346318339E-12
      662     2.656368077E+00    -1.394169516E+00    -1.346318339E-12
      663     2.656368077E+00    -1.394169516E+00     1.000000000E+00
      664     4.105639419E+00    -2.154805793E+00     1.000000000E+00
      665     4.437749902E+00    -2.329110821E+00     4.999910599E-01
      666     4.105639419E+00    -2.154805793E+00    -1.346318339E-12
      667     4.830275090E+00    -2.535123932E+00     1.000000000E+00
      668     5.554910760E+00    -2.915442071E+00     1.000000000E+00
      669     4.896805792E+00    -2.570041939E+00     5.000000000E-01
      670     5.554910760E+00    -2.915442071E+00     5.000000000E-01
      671     5.554910760E+00    -2.915442071E+00    -1.346318339E-12
      672     4.830275090E+00    -2.535123932E+00    -1.346318339E-12
      673     3.570243275E+00    -1.354014674E+00     1.000000000E+00
      674     3.570243275E+00    -1.354014674E+00     6.770833333E-01
      675     3.570243275E+00    -1.354014674E+00    -1.346318339E-12
      676     2.805048728E+00    -1.063814661E+00    -1.346318339E-12
      677     2.805048728E+00    -1.063814661E+00     1.000000000E+00
      678     4.335437822E+00    -1.644214687E+00     1.000000000E+00
      679     4.686136995E+00    -1.777217340E+00     4.999910599E-01
      680     4.335437822E+00    -1.644214687E+00    -1.346318339E-12
      681     5.100632369E+00    -1.934414700E+00     1.000000000E+00
      682     5.865826915E+00    -2.224614713E+00     1.000000000E+00
      683     5.170886888E+00    -1.961058725E+00     5.000000000E-01
      684     5.865826915E+00    -2.224614713E+00     5.000000000E-01
      685     5.865826915E+00    -2.224614713E+00    -1.346318339E-12
      686     5.100632369E+00    -1.934414700E+00    -1.346318339E-12
      687     3.707420616E+00    -9.137971107E-01     1.000000000E+00
      688     3.707420616E+00    -9.137971107E-01     6.770833333E-01
      689     3.707420616E+00    -9.137971107E-01    -1.346318339E-12
      690     2.912825452E+00    -7.179469929E-01    -1.346318339E-12
      691     2.912825452E+00    -7.179469929E-01     1.000000000E+00
      692     4.502015779E+00    -1.109647228E+00     1.000000000E+00
      693     4.866189658E+00    -1.199408028E+00     4.999910599E-01
      694     4.502015779E+00    -1.109647228E+00    -1.346318339E-12
      695     5.296610942E+00    -1.305497346E+00     1.000000000E+00
      696     6.091206105E+00    -1.501347464E+00     1.000000000E+00
      697     5.369564809E+00    -1.323478860E+00     5.000000000E-01
      698     6.091206105E+00    -1.501347464E+00     5.000000000E-01
      699     6.091206105E+00    -1.501347464E+00    -1.346318339E-12
      700     5.296610942E+00    -1.305497346E+00    -1.346318339E-12
      701     3.790535415E+00    -4.602543276E-01     1.000000000E+00
      702     3.790535415E+00    -4.602543276E-01     6.770833333E-01
      703     3.790535415E+00    -4.602543276E-01    -1.346318339E-12
      704     2.978126622E+00    -3.616100408E-01    -1.346318339E-12
      705     2.978126622E+00    -3.616100408E-01     1.000000000E+00
      706     4.602944208E+00    -5.588986144E-01     1.000000000E+00
      707     4.975282319E+00    -6.041086462E-01     4.999910599E-01
      708     4.602944208E+00    -5.588986144E-01    -1.346318339E-12
      709     5.415353001E+00    -6.575429012E-01     1.000000000E+00
      710     6.227761794E+00    -7.561871881E-01     1.000000000E+00
      711     5.489942384E+00    -6.665996921E-01     5.000000000E-01
      712     6.227761794E+00    -7.561871881E-01     5.000000000E-01
      713     6.227761794E+00    -7.561871881E-01    -1.346318339E-12
      714     5.415353001E+00    -6.575429012E-01    -1.346318339E-12
      715     3.818375673E+00    -2.651186241E-14     6.770833333E-01
      716     5.011824160E+00    -3.478841465E-14     4.999910599E-01
      717     5.530264237E+00    -3.838558329E-14     5.000000000E-01
      718     6.273502692E+00    -4.354165931E-14     5.000000000E-01
      719     5.455127019E+00    -3.787646056E-14     1.000000000E+00
      720     4.636751346E+00    -3.219810803E-14     1.000000000E+00
      721     3.818375673E+00    -2.651975551E-14     1.000000000E+00
      722     5.455127019E+00    -3.785254762E-14     0.000000000E+00
      723     4.636751346E+00    -3.217392565E-14     0.000000000E+00
      724     3.818375673E+00    -2.649530368E-14     0.000000000E+00
      725     6.273502692E+00    -4.355481309E-14     1.000000000E+00
      726     3.000000000E+00    -2.084140298E-14     1.000000000E+00
      727     6.273502692E+00    -4.353116958E-14    -3.616083225E-16
      728     3.000000000E+00    -2.081668171E-14    -1.346318339E-12
      729     3.790535415E+00     4.602543276E-01     8.385416667E-01
      730     3.384331019E+00     4.109321842E-01     1.000000000E+00
      731     4.196739812E+00     5.095764710E-01     1.000000000E+00
      732     3.755830324E+00     6.882814513E-01     1.000000000E+00
      733     3.811409254E+00     2.305477857E-01     1.000000000E+00
      734     3.790535415E+00     4.602543276E-01     3.385416667E-01
      735     3.384331019E+00     4.109321842E-01     8.385416667E-01
      736     4.196739812E+00     5.095764710E-01     8.385416667E-01
      737     3.755830324E+00     6.882814513E-01     6.770833333E-01
      738     3.811409254E+00     2.305477857E-01     6.770833333E-01
      739     3.384331019E+00     4.109321842E-01    -1.346318339E-12
      740     4.196739812E+00     5.095764710E-01    -1.346318339E-12
      741     3.755830324E+00     6.882814513E-01    -1.346318339E-12
      742     3.811409254E+00     2.305477857E-01    -1.346318339E-12
      743     2.978126622E+00     3.616100408E-01     5.000000000E-01
      744     2.950859721E+00     5.407651134E-01    -1.346318339E-12
      745     2.994526663E+00     1.811354923E-01    -1.346318339E-12
      746     2.950859721E+00     5.407651134E-01     1.000000000E+00
      747     2.994526663E+00     1.811354923E-01     1.000000000E+00
      748     4.789113263E+00     5.815036303E-01     7.499955299E-01
      749     4.602944208E+00     5.588986144E-01     5.000000000E-01
      750     5.009148605E+00     6.082207578E-01     1.000000000E+00
      751     4.560800927E+00     8.357977892E-01     1.000000000E+00
      752     4.628291845E+00     2.799600792E-01     1.000000000E+00
      753     4.789113263E+00     5.815036303E-01     2.499955299E-01
      754     5.232612352E+00     6.353541692E-01     4.999955299E-01
      755     4.929730014E+00     9.034065534E-01     4.999910599E-01
      756     5.002680358E+00     3.026064121E-01     4.999910599E-01
      757     5.009148605E+00     6.082207578E-01    -1.346318339E-12
      758     4.560800927E+00     8.357977892E-01    -1.346318339E-12
      759     4.628291845E+00     2.799600792E-01    -1.346318339E-12
      760     5.821557397E+00     7.068650446E-01     1.000000000E+00
      761     5.452647693E+00     6.620712967E-01     7.500000000E-01
      762     5.365771531E+00     9.833141271E-01     1.000000000E+00
      763     5.445174435E+00     3.293723727E-01     1.000000000E+00
      764     6.227761794E+00     7.561871881E-01     7.500000000E-01
      765     6.170742134E+00     1.130830465E+00     1.000000000E+00
      766     6.262057026E+00     3.787846661E-01     1.000000000E+00
      767     5.858852089E+00     7.113934401E-01     5.000000000E-01
      768     5.452647693E+00     6.620712967E-01     2.500000000E-01
      769     5.439677994E+00     9.968579892E-01     5.000000000E-01
      770     5.520174570E+00     3.339090450E-01     5.000000000E-01
      771     6.227761794E+00     7.561871881E-01     2.500000000E-01
      772     6.170742134E+00     1.130830465E+00     5.000000000E-01
      773     6.262057026E+00     3.787846661E-01     5.000000000E-01
      774     5.821557397E+00     7.068650446E-01    -1.346318339E-12
      775     6.170742134E+00     1.130830465E+00    -1.346318339E-12
      776     6.262057026E+00     3.787846661E-01    -1.346318339E-12
      777     5.365771531E+00     9.833141271E-01    -1.346318339E-12
      778     5.445174435E+00     3.293723727E-01    -1.346318339E-12
      779     3.707420616E+00     9.137971107E-01     8.385416667E-01
      780     3.310123034E+00     8.158720518E-01     1.000000000E+00
      781     4.104718197E+00     1.011722170E+00     1.000000000E+00
      782     3.645482931E+00     1.135978423E+00     1.000000000E+00
      783     3.707420616E+00     9.137971107E-01     3.385416667E-01
      784     3.310123034E+00     8.158720518E-01     8.385416667E-01
      785     4.104718197E+00     1.011722170E+00     8.385416667E-01
      786     3.645482931E+00     1.135978423E+00     6.770833333E-01
      787     3.310123034E+00     8.158720518E-01    -1.346318339E-12
      788     4.104718197E+00     1.011722170E+00    -1.346318339E-12
      789     3.645482931E+00     1.135978423E+00    -1.346318339E-12
      790     2.912825452E+00     7.179469929E-01     5.000000000E-01
      791     2.864162600E+00     8.925091616E-01    -1.346318339E-12
      792     2.864162600E+00     8.925091616E-01     1.000000000E+00
      793     4.684102719E+00     1.154527628E+00     7.499955299E-01
      794     4.502015779E+00     1.109647228E+00     5.000000000E-01
      795     4.899313360E+00     1.207572287E+00     1.000000000E+00
      796     4.426803263E+00     1.379447685E+00     1.000000000E+00
      797     4.684102719E+00     1.154527628E+00     2.499955299E-01
      798     5.117877234E+00     1.261443444E+00     4.999955299E-01
      799     4.784893105E+00     1.491032993E+00     4.999910599E-01
      800     4.899313360E+00     1.207572287E+00    -1.346318339E-12
      801     4.426803263E+00     1.379447685E+00    -1.346318339E-12
      802     5.693908524E+00     1.403422405E+00     1.000000000E+00
      803     5.333087876E+00     1.314488103E+00     7.500000000E-01
      804     5.208123594E+00     1.622916947E+00     1.000000000E+00
      805     6.091206105E+00     1.501347464E+00     7.500000000E-01
      806     5.989443926E+00     1.866386209E+00     1.000000000E+00
      807     5.730385457E+00     1.412413162E+00     5.000000000E-01
      808     5.333087876E+00     1.314488103E+00     2.500000000E-01
      809     5.279858664E+00     1.645270499E+00     5.000000000E-01
      810     6.091206105E+00     1.501347464E+00     2.500000000E-01
      811     5.989443926E+00     1.866386209E+00     5.000000000E-01
      812     5.693908524E+00     1.403422405E+00    -1.346318339E-12
      813     5.989443926E+00     1.866386209E+00    -1.346318339E-12
      814     5.208123594E+00     1.622916947E+00    -1.346318339E-12
      815     3.570243275E+00     1.354014674E+00     8.385416667E-01
      816     3.187646001E+00     1.208914668E+00     1.000000000E+00
      817     3.952840548E+00     1.499114681E+00     1.000000000E+00
      818     3.481976188E+00     1.567110272E+00     1.000000000E+00
      819     3.570243275E+00     1.354014674E+00     3.385416667E-01
      820     3.187646001E+00     1.208914668E+00     8.385416667E-01
      821     3.952840548E+00     1.499114681E+00     8.385416667E-01
      822     3.481976188E+00     1.567110272E+00     6.770833333E-01
      823     3.187646001E+00     1.208914668E+00    -1.346318339E-12
      824     3.952840548E+00     1.499114681E+00    -1.346318339E-12
      825     3.481976188E+00     1.567110272E+00    -1.346318339E-12
      826     2.805048728E+00     1.063814661E+00     5.000000000E-01
      827     2.735699538E+00     1.231238416E+00    -1.346318339E-12
      828     2.735699538E+00     1.231238416E+00     1.000000000E+00
      829     4.510787408E+00     1.710716014E+00     7.499955299E-01
      830     4.335437822E+00     1.644214687E+00     5.000000000E-01
      831     4.718035095E+00     1.789314694E+00     1.000000000E+00
      832     4.228252838E+00     1.902982128E+00     1.000000000E+00
      833     4.510787408E+00     1.710716014E+00     2.499955299E-01
      834     4.928511941E+00     1.869138033E+00     4.999955299E-01
      835     4.570281679E+00     2.056916814E+00     4.999910599E-01
      836     4.718035095E+00     1.789314694E+00    -1.346318339E-12
      837     4.228252838E+00     1.902982128E+00    -1.346318339E-12
      838     5.483229642E+00     2.079514707E+00     1.000000000E+00
      839     5.135759628E+00     1.947736713E+00     7.500000000E-01
      840     4.974529488E+00     2.238853984E+00     1.000000000E+00
      841     5.865826915E+00     2.224614713E+00     7.500000000E-01
      842     5.720806139E+00     2.574725840E+00     1.000000000E+00
      843     5.518356902E+00     2.092836719E+00     5.000000000E-01
      844     5.135759628E+00     1.947736713E+00     2.500000000E-01
      845     5.043047106E+00     2.269691260E+00     5.000000000E-01
      846     5.865826915E+00     2.224614713E+00     2.500000000E-01
      847     5.720806139E+00     2.574725840E+00     5.000000000E-01
      848     5.483229642E+00     2.079514707E+00    -1.346318339E-12
      849     5.720806139E+00     2.574725840E+00    -1.346318339E-12
      850     4.974529488E+00     2.238853984E+00    -1.346318339E-12
      851     3.381003748E+00     1.774487655E+00     8.385416667E-01
      852     3.018685912E+00     1.584328585E+00     1.000000000E+00
      853     3.743321583E+00     1.964646724E+00     1.000000000E+00
      854     3.267694392E+00     1.975390124E+00     1.000000000E+00
      855     3.381003748E+00     1.774487655E+00     3.385416667E-01
      856     3.018685912E+00     1.584328585E+00     8.385416667E-01
      857     3.743321583E+00     1.964646724E+00     8.385416667E-01
      858     3.267694392E+00     1.975390124E+00     6.770833333E-01
      859     3.018685912E+00     1.584328585E+00    -1.346318339E-12
      860     3.743321583E+00     1.964646724E+00    -1.346318339E-12
      861     3.267694392E+00     1.975390124E+00    -1.346318339E-12
      862     2.656368077E+00     1.394169516E+00     5.000000000E-01
      863     2.567343817E+00     1.552013443E+00    -1.346318339E-12
      864     2.567343817E+00     1.552013443E+00     1.000000000E+00
      865     4.271694660E+00     2.241958307E+00     7.499955299E-01
      866     4.105639419E+00     2.154805793E+00     5.000000000E-01
      867     4.467957254E+00     2.344964863E+00     1.000000000E+00
      868     3.968044966E+00     2.398766806E+00     1.000000000E+00
      869     4.271694660E+00     2.241958307E+00     2.499955299E-01
      870     4.667277847E+00     2.449576380E+00     4.999955299E-01
      871     4.289025256E+00     2.592806156E+00     4.999910599E-01
      872     4.467957254E+00     2.344964863E+00    -1.346318339E-12
      873     3.968044966E+00     2.398766806E+00    -1.346318339E-12
      874     5.192592925E+00     2.725283001E+00     1.000000000E+00
      875     4.863540441E+00     2.552582935E+00     7.500000000E-01
      876     4.668395541E+00     2.822143488E+00     1.000000000E+00
      877     5.554910760E+00     2.915442071E+00     7.500000000E-01
      878     5.368746115E+00     3.245520170E+00     1.000000000E+00
      879     5.225858276E+00     2.742742005E+00     5.000000000E-01
      880     4.863540441E+00     2.552582935E+00     2.500000000E-01
      881     4.732696565E+00     2.861014812E+00     5.000000000E-01
      882     5.554910760E+00     2.915442071E+00     2.500000000E-01
      883     5.368746115E+00     3.245520170E+00     5.000000000E-01
      884     5.192592925E+00     2.725283001E+00    -1.346318339E-12
      885     5.368746115E+00     3.245520170E+00    -1.346318339E-12
      886     4.668395541E+00     2.822143488E+00    -1.346318339E-12
      887     3.142461573E+00     2.169084610E+00     8.385416667E-01
      888     2.805706585E+00     1.936639425E+00     1.000000000E+00
      889     3.479216560E+00     2.401529794E+00     1.000000000E+00
      890     3.005762253E+00     2.354864340E+00     1.000000000E+00
      891     3.142461573E+00     2.169084610E+00     3.385416667E-01
      892     2.805706585E+00     1.936639425E+00     8.385416667E-01
      893     3.479216560E+00     2.401529794E+00     8.385416667E-01
      894     3.005762253E+00     2.354864340E+00     6.770833333E-01
      895     2.805706585E+00     1.936639425E+00    -1.346318339E-12
      896     3.479216560E+00     2.401529794E+00    -1.346318339E-12
      897     3.005762253E+00     2.354864340E+00    -1.346318339E-12
      898     2.468951598E+00     1.704194240E+00     5.000000000E-01
      899     2.361550442E+00     1.850156618E+00    -1.346318339E-12
      900     2.361550442E+00     1.850156618E+00     1.000000000E+00
      901     3.970310985E+00     2.740507801E+00     7.499955299E-01
      902     3.815971548E+00     2.633974979E+00     5.000000000E-01
      903     4.152726535E+00     2.866420164E+00     1.000000000E+00
      904     3.649974063E+00     2.859572063E+00     1.000000000E+00
      905     3.970310985E+00     2.740507801E+00     2.499955299E-01
      906     4.337984332E+00     2.994294388E+00     4.999955299E-01
      907     3.945225186E+00     3.090886546E+00     4.999910599E-01
      908     4.152726535E+00     2.866420164E+00    -1.346318339E-12
      909     3.649974063E+00     2.859572063E+00    -1.346318339E-12
      910     4.826236511E+00     3.331310533E+00     1.000000000E+00
      911     4.520399882E+00     3.120206751E+00     7.500000000E-01
      912     4.294185874E+00     3.364279785E+00     1.000000000E+00
      913     5.162991498E+00     3.563755718E+00     7.500000000E-01
      914     4.938397685E+00     3.868987508E+00     1.000000000E+00
      915     4.857154870E+00     3.352651936E+00     5.000000000E-01
      916     4.520399882E+00     3.120206751E+00     2.500000000E-01
      917     4.353332651E+00     3.410618326E+00     5.000000000E-01
      918     5.162991498E+00     3.563755718E+00     2.500000000E-01
      919     4.938397685E+00     3.868987508E+00     5.000000000E-01
      920     4.826236511E+00     3.331310533E+00    -1.346318339E-12
      921     4.938397685E+00     3.868987508E+00    -1.346318339E-12
      922     4.294185874E+00     3.364279785E+00    -1.346318339E-12
      923     2.858095232E+00     2.532051426E+00     8.385416667E-01
      924     2.551813738E+00     2.260709701E+00     1.000000000E+00
      925     3.164376725E+00     2.803393152E+00     1.000000000E+00
      926     2.699999331E+00     2.699999331E+00     1.000000000E+00
      927     2.858095232E+00     2.532051426E+00     3.385416667E-01
      928     2.551813738E+00     2.260709701E+00     8.385416667E-01
      929     3.164376725E+00     2.803393152E+00     8.385416667E-01
      930     2.699999331E+00     2.699999331E+00     6.770833333E-01
      931     2.551813738E+00     2.260709701E+00    -1.346318339E-12
      932     3.164376725E+00     2.803393152E+00    -1.346318339E-12
      933     2.699999331E+00     2.699999331E+00    -1.346318339E-12
      934     2.245532245E+00     1.989367975E+00     5.000000000E-01
      935     2.121320344E+00     2.121320344E+00    -1.346318339E-12
      936     2.121320344E+00     2.121320344E+00     1.000000000E+00
      937     3.611031235E+00     3.199094519E+00     7.499955299E-01
      938     3.470658219E+00     3.074734878E+00     5.000000000E-01
      939     3.776939713E+00     3.346076604E+00     1.000000000E+00
      940     3.278678319E+00     3.278678319E+00     1.000000000E+00
      941     3.611031235E+00     3.199094519E+00     2.499955299E-01
      942     3.945433237E+00     3.495348841E+00     4.999955299E-01
      943     3.543894850E+00     3.543894850E+00     4.999910599E-01
      944     3.776939713E+00     3.346076604E+00    -1.346318339E-12
      945     3.278678319E+00     3.278678319E+00    -1.346318339E-12
      946     4.389502700E+00     3.888760056E+00     1.000000000E+00
      947     4.111341714E+00     3.642330926E+00     7.500000000E-01
      948     3.857357307E+00     3.857357307E+00     1.000000000E+00
      949     4.695784194E+00     4.160101782E+00     7.500000000E-01
      950     4.436036295E+00     4.436036295E+00     1.000000000E+00
      951     4.417623208E+00     3.913672652E+00     5.000000000E-01
      952     4.111341714E+00     3.642330926E+00     2.500000000E-01
      953     3.910487344E+00     3.910487344E+00     5.000000000E-01
      954     4.695784194E+00     4.160101782E+00     2.500000000E-01
      955     4.436036295E+00     4.436036295E+00     5.000000000E-01
      956     4.389502700E+00     3.888760056E+00    -1.346318339E-12
      957     4.436036295E+00     4.436036295E+00    -1.346318339E-12
      958     3.857357307E+00     3.857357307E+00    -1.346318339E-12
      959     2.532051426E+00     2.858095232E+00     8.385416667E-01
      960     2.260709701E+00     2.551813738E+00     1.000000000E+00
      961     2.803393152E+00     3.164376725E+00     1.000000000E+00
      962     2.354864340E+00     3.005762253E+00     1.000000000E+00
      963     2.532051426E+00     2.858095232E+00     3.385416667E-01
      964     2.260709701E+00     2.551813738E+00     8.385416667E-01
      965     2.803393152E+00     3.164376725E+00     8.385416667E-01
      966     2.354864340E+00     3.005762253E+00     6.770833333E-01
      967     2.260709701E+00     2.551813738E+00    -1.346318339E-12
      968     2.803393152E+00     3.164376725E+00    -1.346318339E-12
      969     2.354864340E+00     3.005762253E+00    -1.346318339E-12
      970     1.989367975E+00     2.245532245E+00     5.000000000E-01
      971     1.850156618E+00     2.361550442E+00    -1.346318339E-12
      972     1.850156618E+00     2.361550442E+00     1.000000000E+00
      973     3.199094519E+00     3.611031235E+00     7.499955299E-01
      974     3.074734878E+00     3.470658219E+00     5.000000000E-01
      975     3.346076604E+00     3.776939713E+00     1.000000000E+00
      976     2.859572063E+00     3.649974063E+00     1.000000000E+00
      977     3.199094519E+00     3.611031235E+00     2.499955299E-01
      978     3.495348841E+00     3.945433237E+00     4.999955299E-01
      979     3.090886546E+00     3.945225186E+00     4.999910599E-01
      980     3.346076604E+00     3.776939713E+00    -1.346318339E-12
      981     2.859572063E+00     3.649974063E+00    -1.346318339E-12
      982     3.888760056E+00     4.389502700E+00     1.000000000E+00
      983     3.642330926E+00     4.111341714E+00     7.500000000E-01
      984     3.364279785E+00     4.294185874E+00     1.000000000E+00
      985     4.160101782E+00     4.695784194E+00     7.500000000E-01
      986     3.868987508E+00     4.938397685E+00     1.000000000E+00
      987     3.913672652E+00     4.417623208E+00     5.000000000E-01
      988     3.642330926E+00     4.111341714E+00     2.500000000E-01
      989     3.410618326E+00     4.353332651E+00     5.000000000E-01
      990     4.160101782E+00     4.695784194E+00     2.500000000E-01
      991     3.868987508E+00     4.938397685E+00     5.000000000E-01
      992     3.888760056E+00     4.389502700E+00    -1.346318339E-12
      993     3.868987508E+00     4.938397685E+00    -1.346318339E-12
      994     3.364279785E+00     4.294185874E+00    -1.346318339E-12
      995     2.169084610E+00     3.142461573E+00     8.385416667E-01
      996     1.936639425E+00     2.805706585E+00     1.000000000E+00
      997     2.401529794E+00     3.479216560E+00     1.000000000E+00
      998     1.975390124E+00     3.267694392E+00     1.000000000E+00
      999     2.169084610E+00     3.142461573E+00     3.385416667E-01
     1000     1.936639425E+00     2.805706585E+00     8.385416667E-01
     1001     2.401529794E+00     3.479216560E+00     8.385416667E-01
     1002     1.975390124E+00     3.267694392E+00     6.770833333E-01
     1003     1.936639425E+00     2.805706585E+00    -1.346318339E-12
     1004     2.401529794E+00     3.479216560E+00    -1.346318339E-12
     1005     1.975390124E+00     3.267694392E+00    -1.346318339E-12
     1006     1.704194240E+00     2.468951598E+00     5.000000000E-01
     1007     1.552013443E+00     2.567343817E+00    -1.346318339E-12
     1008     1.552013443E+00     2.567343817E+00     1.000000000E+00
     1009     2.740507801E+00     3.970310985E+00     7.499955299E-01
     1010     2.633974979E+00     3.815971548E+00     5.000000000E-01
     1011     2.866420164E+00     4.152726535E+00     1.000000000E+00
     1012     2.398766806E+00     3.968044966E+00     1.000000000E+00
     1013     2.740507801E+00     3.970310985E+00     2.499955299E-01
     1014     2.994294388E+00     4.337984332E+00     4.999955299E-01
     1015     2.592806156E+00     4.289025256E+00     4.999910599E-01
     1016     2.866420164E+00     4.152726535E+00    -1.346318339E-12
     1017     2.398766806E+00     3.968044966E+00    -1.346318339E-12
     1018     3.331310533E+00     4.826236511E+00     1.000000000E+00
     1019     3.120206751E+00     4.520399882E+00     7.500000000E-01
     1020     2.822143488E+00     4.668395541E+00     1.000000000E+00
     1021     3.563755718E+00     5.162991498E+00     7.500000000E-01
     1022     3.245520170E+00     5.368746115E+00     1.000000000E+00
     1023     3.352651936E+00     4.857154870E+00     5.000000000E-01
     1024     3.120206751E+00     4.520399882E+00     2.500000000E-01
     1025     2.861014812E+00     4.732696565E+00     5.000000000E-01
     1026     3.563755718E+00     5.162991498E+00     2.500000000E-01
     1027     3.245520170E+00     5.368746115E+00     5.000000000E-01
     1028     3.331310533E+00     4.826236511E+00    -1.346318339E-12
     1029     3.245520170E+00     5.368746115E+00    -1.346318339E-12
     1030     2.822143488E+00     4.668395541E+00    -1.346318339E-12
     1031     1.774487655E+00     3.381003748E+00     8.385416667E-01
     1032     1.584328585E+00     3.018685912E+00     1.000000000E+00
     1033     1.964646724E+00     3.743321583E+00     1.000000000E+00
     1034     1.567110272E+00     3.481976188E+00     1.000000000E+00
     1035     1.774487655E+00     3.381003748E+00     3.385416667E-01
     1036     1.584328585E+00     3.018685912E+00     8.385416667E-01
     1037     1.964646724E+00     3.743321583E+00     8.385416667E-01
     1038     1.567110272E+00     3.481976188E+00     6.770833333E-01
     1039     1.584328585E+00     3.018685912E+00    -1.346318339E-12
     1040     1.964646724E+00     3.743321583E+00    -1.346318339E-12
     1041     1.567110272E+00     3.481976188E+00    -1.346318339E-12
     1042     1.394169516E+00     2.656368077E+00     5.000000000E-01
     1043     1.231238416E+00     2.735699538E+00    -1.346318339E-12
     1044     1.231238416E+00     2.735699538E+00     1.000000000E+00
     1045     2.241958307E+00     4.271694660E+00     7.499955299E-01
     1046     2.154805793E+00     4.105639419E+00     5.000000000E-01
     1047     2.344964863E+00     4.467957254E+00     1.000000000E+00
     1048     1.902982128E+00     4.228252838E+00     1.000000000E+00
     1049     2.241958307E+00     4.271694660E+00     2.499955299E-01
     1050     2.449576380E+00     4.667277847E+00     4.999955299E-01
     1051     2.056916814E+00     4.570281679E+00     4.999910599E-01
     1052     2.344964863E+00     4.467957254E+00    -1.346318339E-12
     1053     1.902982128E+00     4.228252838E+00    -1.346318339E-12
     1054     2.725283001E+00     5.192592925E+00     1.000000000E+00
     1055     2.552582935E+00     4.863540441E+00     7.500000000E-01
     1056     2.238853984E+00     4.974529488E+00     1.000000000E+00
     1057     2.915442071E+00     5.554910760E+00     7.500000000E-01
     1058     2.574725840E+00     5.720806139E+00     1.000000000E+00
     1059     2.742742005E+00     5.225858276E+00     5.000000000E-01
     1060     2.552582935E+00     4.863540441E+00     2.500000000E-01
     1061     2.269691260E+00     5.043047106E+00     5.000000000E-01
     1062     2.915442071E+00     5.554910760E+00     2.500000000E-01
     1063     2.574725840E+00     5.720806139E+00     5.000000000E-01
     1064     2.725283001E+00     5.192592925E+00    -1.346318339E-12
     1065     2.574725840E+00     5.720806139E+00    -1.346318339E-12
     1066     2.238853984E+00     4.974529488E+00    -1.346318339E-12
     1067     1.354014674E+00     3.570243275E+00     8.385416667E-01
     1068     1.208914668E+00     3.187646001E+00     1.000000000E+00
     1069     1.499114681E+00     3.952840548E+00     1.000000000E+00
     1070     1.135978423E+00     3.645482931E+00     1.000000000E+00
     1071     1.354014674E+00     3.570243275E+00     3.385416667E-01
     1072     1.208914668E+00     3.187646001E+00     8.385416667E-01
     1073     1.499114681E+00     3.952840548E+00     8.385416667E-01
     1074     1.135978423E+00     3.645482931E+00     6.770833333E-01
     1075     1.208914668E+00     3.187646001E+00    -1.346318339E-12
     1076     1.499114681E+00     3.952840548E+00    -1.346318339E-12
     1077     1.135978423E+00     3.645482931E+00    -1.346318339E-12
     1078     1.063814661E+00     2.805048728E+00     5.000000000E-01
     1079     8.925091616E-01     2.864162600E+00    -1.346318339E-12
     1080     8.925091616E-01     2.864162600E+00     1.000000000E+00
     1081     1.710716014E+00     4.510787408E+00     7.499955299E-01
     1082     1.644214687E+00     4.335437822E+00     5.000000000E-01
     1083     1.789314694E+00     4.718035095E+00     1.000000000E+00
     1084     1.379447685E+00     4.426803263E+00     1.000000000E+00
     1085     1.710716014E+00     4.510787408E+00     2.499955299E-01
     1086     1.869138033E+00     4.928511941E+00     4.999955299E-01
     1087     1.491032993E+00     4.784893105E+00     4.999910599E-01
     1088     1.789314694E+00     4.718035095E+00    -1.346318339E-12
     1089     1.379447685E+00     4.426803263E+00    -1.346318339E-12
     1090     2.079514707E+00     5.483229642E+00     1.000000000E+00
     1091     1.947736713E+00     5.135759628E+00     7.500000000E-01
     1092     1.622916947E+00     5.208123594E+00     1.000000000E+00
     1093     2.224614713E+00     5.865826915E+00     7.500000000E-01
     1094     1.866386209E+00     5.989443926E+00     1.000000000E+00
     1095     2.092836719E+00     5.518356902E+00     5.000000000E-01
     1096     1.947736713E+00     5.135759628E+00     2.500000000E-01
     1097     1.645270499E+00     5.279858664E+00     5.000000000E-01
     1098     2.224614713E+00     5.865826915E+00     2.500000000E-01
     1099     1.866386209E+00     5.989443926E+00     5.000000000E-01
     1100     2.079514707E+00     5.483229642E+00    -1.346318339E-12
     1101     1.866386209E+00     5.989443926E+00    -1.346318339E-12
     1102     1.622916947E+00     5.208123594E+00    -1.346318339E-12
     1103     9.137971107E-01     3.707420616E+00     8.385416667E-01
     1104     8.158720518E-01     3.310123034E+00     1.000000000E+00
     1105     1.011722170E+00     4.104718197E+00     1.000000000E+00
     1106     6.882814513E-01     3.755830324E+00     1.000000000E+00
     1107     9.137971107E-01     3.707420616E+00     3.385416667E-01
     1108     8.158720518E-01     3.310123034E+00     8.385416667E-01
     1109     1.011722170E+00     4.104718197E+00     8.385416667E-01
     1110     6.882814513E-01     3.755830324E+00     6.770833333E-01
     1111     8.158720518E-01     3.310123034E+00    -1.346318339E-12
     1112     1.011722170E+00     4.104718197E+00    -1.346318339E-12
     1113     6.882814513E-01     3.755830324E+00    -1.346318339E-12
     1114     7.179469929E-01     2.912825452E+00     5.000000000E-01
     1115     5.407651134E-01     2.950859721E+00    -1.346318339E-12
     1116     5.407651134E-01     2.950859721E+00     1.000000000E+00
     1117     1.154527628E+00     4.684102719E+00     7.499955299E-01
     1118     1.109647228E+00     4.502015779E+00     5.000000000E-01
     1119     1.207572287E+00     4.899313360E+00     1.000000000E+00
     1120     8.357977892E-01     4.560800927E+00     1.000000000E+00
     1121     1.154527628E+00     4.684102719E+00     2.499955299E-01
     1122     1.261443444E+00     5.117877234E+00     4.999955299E-01
     1123     9.034065534E-01     4.929730014E+00     4.999910599E-01
     1124     1.207572287E+00     4.899313360E+00    -1.346318339E-12
     1125     8.357977892E-01     4.560800927E+00    -1.346318339E-12
     1126     1.403422405E+00     5.693908524E+00     1.000000000E+00
     1127     1.314488103E+00     5.333087876E+00     7.500000000E-01
     1128     9.833141271E-01     5.365771531E+00     1.000000000E+00
     1129     1.501347464E+00     6.091206105E+00     7.500000000E-01
     1130     1.130830465E+00     6.170742134E+00     1.000000000E+00
     1131     1.412413162E+00     5.730385457E+00     5.000000000E-01
     1132     1.314488103E+00     5.333087876E+00     2.500000000E-01
     1133     9.968579892E-01     5.439677994E+00     5.000000000E-01
     1134     1.501347464E+00     6.091206105E+00     2.500000000E-01
     1135     1.130830465E+00     6.170742134E+00     5.000000000E-01
     1136     1.403422405E+00     5.693908524E+00    -1.346318339E-12
     1137     1.130830465E+00     6.170742134E+00    -1.346318339E-12
     1138     9.833141271E-01     5.365771531E+00    -1.346318339E-12
     1139     4.602543276E-01     3.790535415E+00     8.385416667E-01
     1140     4.109321842E-01     3.384331019E+00     1.000000000E+00
     1141     5.095764710E-01     4.196739812E+00     1.000000000E+00
     1142     2.305477857E-01     3.811409254E+00     1.000000000E+00
     1143     4.602543276E-01     3.790535415E+00     3.385416667E-01
     1144     4.109321842E-01     3.384331019E+00     8.385416667E-01
     1145     5.095764710E-01     4.196739812E+00     8.385416667E-01
     1146     2.305477857E-01     3.811409254E+00     6.770833333E-01
     1147     4.109321842E-01     3.384331019E+00    -1.346318339E-12
     1148     5.095764710E-01     4.196739812E+00    -1.346318339E-12
     1149     2.305477857E-01     3.811409254E+00    -1.346318339E-12
     1150     3.616100408E-01     2.978126622E+00     5.000000000E-01
     1151     1.811354923E-01     2.994526663E+00    -1.346318339E-12
     1152     1.811354923E-01     2.994526663E+00     1.000000000E+00
     1153     5.815036303E-01     4.789113263E+00     7.499955299E-01
     1154     5.588986144E-01     4.602944208E+00     5.000000000E-01
     1155     6.082207578E-01     5.009148605E+00     1.000000000E+00
     1156     2.799600792E-01     4.628291845E+00     1.000000000E+00
     1157     5.815036303E-01     4.789113263E+00     2.499955299E-01
     1158     6.353541692E-01     5.232612352E+00     4.999955299E-01
     1159     3.026064121E-01     5.002680358E+00     4.999910599E-01
     1160     6.082207578E-01     5.009148605E+00    -1.346318339E-12
     1161     2.799600792E-01     4.628291845E+00    -1.346318339E-12
     1162     7.068650446E-01     5.821557397E+00     1.000000000E+00
     1163     6.620712967E-01     5.452647693E+00     7.500000000E-01
     1164     3.293723727E-01     5.445174435E+00     1.000000000E+00
     1165     7.561871881E-01     6.227761794E+00     7.500000000E-01
     1166     3.787846661E-01     6.262057026E+00     1.000000000E+00
     1167     7.113934401E-01     5.858852089E+00     5.000000000E-01
     1168     6.620712967E-01     5.452647693E+00     2.500000000E-01
     1169     3.339090450E-01     5.520174570E+00     5.000000000E-01
     1170     7.561871881E-01     6.227761794E+00     2.500000000E-01
     1171     3.787846661E-01     6.262057026E+00     5.000000000E-01
     1172     7.068650446E-01     5.821557397E+00    -1.346318339E-12
     1173     3.787846661E-01     6.262057026E+00    -1.346318339E-12
     1174     3.293723727E-01     5.445174435E+00    -1.346318339E-12
     1175     3.697129408E-14     3.818375673E+00     8.385416667E-01
     1176     3.745918506E-14     3.409187836E+00     1.000000000E+00
     1177     4.195862408E-14     4.227563509E+00     1.000000000E+00
     1178    -2.305477857E-01     3.811409254E+00     1.000000000E+00
     1179     3.187554387E-14     3.818375673E+00     3.385416667E-01
     1180     3.285132583E-14     3.409187836E+00     8.385416667E-01
     1181     3.089976192E-14     4.227563509E+00     8.385416667E-01
     1182    -2.305477857E-01     3.811409254E+00     6.770833333E-01
     1183     3.285132583E-14     3.409187836E+00    -1.346318339E-12
     1184     3.089976192E-14     4.227563509E+00    -1.346318339E-12
     1185    -2.305477857E-01     3.811409254E+00    -1.346318339E-12
     1186     3.398973811E-14     3.000000000E+00     5.000000000E-01
     1187    -1.811354923E-01     2.994526663E+00    -1.346318339E-12
     1188    -1.811354923E-01     2.994526663E+00     1.000000000E+00
     1189     2.927345866E-14     4.824287753E+00     7.499955299E-01
     1190     2.981555974E-14     4.636751346E+00     5.000000000E-01
     1191     2.862293735E-14     5.045939182E+00     1.000000000E+00
     1192    -2.799600792E-01     4.628291845E+00     1.000000000E+00
     1193     2.927345866E-14     4.824287753E+00     2.499955299E-01
     1194     3.512815039E-14     5.271044198E+00     4.999955299E-01
     1195    -3.026064121E-01     5.002680358E+00     4.999910599E-01
     1196     2.883977779E-14     5.045939182E+00    -1.346318339E-12
     1197    -2.799600792E-01     4.628291845E+00    -1.346318339E-12
     1198     3.447762909E-14     5.864314855E+00     1.000000000E+00
     1199     2.764715540E-14     5.492695628E+00     7.500000000E-01
     1200    -3.293723727E-01     5.445174435E+00     1.000000000E+00
     1201     3.393552800E-14     6.273502692E+00     7.500000000E-01
     1202    -3.787846661E-01     6.262057026E+00     1.000000000E+00
     1203     2.656295323E-14     5.901883465E+00     5.000000000E-01
     1204     2.753873518E-14     5.492695628E+00     2.500000000E-01
     1205    -3.339090450E-01     5.520174570E+00     5.000000000E-01
     1206     3.393552800E-14     6.273502692E+00     2.500000000E-01
     1207    -3.787846661E-01     6.262057026E+00     5.000000000E-01
     1208     2.667137344E-14     5.864314855E+00    -1.346318339E-12
     1209    -3.787846661E-01     6.262057026E+00    -1.346318339E-12
     1210    -3.293723727E-01     5.445174435E+00    -1.346318339E-12
     1211    -4.602543276E-01     3.790535415E+00     8.385416667E-01
     1212    -4.109321842E-01     3.384331019E+00     1.000000000E+00
     1213    -5.095764710E-01     4.196739812E+00     1.000000000E+00
     1214    -6.882814513E-01     3.755830324E+00     1.000000000E+00
     1215    -4.602543276E-01     3.790535415E+00     3.385416667E-01
     1216    -4.109321842E-01     3.384331019E+00     8.385416667E-01
     1217    -5.095764710E-01     4.196739812E+00     8.385416667E-01
     1218    -6.882814513E-01     3.755830324E+00     6.770833333E-01
     1219    -4.109321842E-01     3.384331019E+00    -1.346318339E-12
     1220    -5.095764710E-01     4.196739812E+00    -1.346318339E-12
     1221    -6.882814513E-01     3.755830324E+00    -1.346318339E-12
     1222    -3.616100408E-01     2.978126622E+00     5.000000000E-01
     1223    -5.407651134E-01     2.950859721E+00    -1.346318339E-12
     1224    -5.407651134E-01     2.950859721E+00     1.000000000E+00
     1225    -5.815036303E-01     4.789113263E+00     7.499955299E-01
     1226    -5.588986144E-01     4.602944208E+00     5.000000000E-01
     1227    -6.082207578E-01     5.009148605E+00     1.000000000E+00
     1228    -8.357977892E-01     4.560800927E+00     1.000000000E+00
     1229    -5.815036303E-01     4.789113263E+00     2.499955299E-01
     1230    -6.353541692E-01     5.232612352E+00     4.999955299E-01
     1231    -9.034065534E-01     4.929730014E+00     4.999910599E-01
     1232    -6.082207578E-01     5.009148605E+00    -1.346318339E-12
     1233    -8.357977892E-01     4.560800927E+00    -1.346318339E-12
     1234    -7.068650446E-01     5.821557397E+00     1.000000000E+00
     1235    -6.620712967E-01     5.452647693E+00     7.500000000E-01
     1236    -9.833141271E-01     5.365771531E+00     1.000000000E+00
     1237    -7.561871881E-01     6.227761794E+00     7.500000000E-01
     1238    -1.130830465E+00     6.170742134E+00     1.000000000E+00
     1239    -7.113934401E-01     5.858852089E+00     5.000000000E-01
     1240    -6.620712967E-01     5.452647693E+00     2.500000000E-01
     1241    -9.968579892E-01     5.439677994E+00     5.000000000E-01
     1242    -7.561871881E-01     6.227761794E+00     2.500000000E-01
     1243    -1.130830465E+00     6.170742134E+00     5.000000000E-01
     1244    -7.068650446E-01     5.821557397E+00    -1.346318339E-12
     1245    -1.130830465E+00     6.170742134E+00    -1.346318339E-12
     1246    -9.833141271E-01     5.365771531E+00    -1.346318339E-12
     1247    -9.137971107E-01     3.707420616E+00     8.385416667E-01
     1248    -8.158720518E-01     3.310123034E+00     1.000000000E+00
     1249    -1.011722170E+00     4.104718197E+00     1.000000000E+00
     1250    -1.135978423E+00     3.645482931E+00     1.000000000E+00
     1251    -9.137971107E-01     3.707420616E+00     3.385416667E-01
     1252    -8.158720518E-01     3.310123034E+00     8.385416667E-01
     1253    -1.011722170E+00     4.104718197E+00     8.385416667E-01
     1254    -1.135978423E+00     3.645482931E+00     6.770833333E-01
     1255    -8.158720518E-01     3.310123034E+00    -1.346318339E-12
     1256    -1.011722170E+00     4.104718197E+00    -1.346318339E-12
     1257    -1.135978423E+00     3.645482931E+00    -1.346318339E-12
     1258    -7.179469929E-01     2.912825452E+00     5.000000000E-01
     1259    -8.925091616E-01     2.864162600E+00    -1.346318339E-12
     1260    -8.925091616E-01     2.864162600E+00     1.000000000E+00
     1261    -1.154527628E+00     4.684102719E+00     7.499955299E-01
     1262    -1.109647228E+00     4.502015779E+00     5.000000000E-01
     1263    -1.207572287E+00     4.899313360E+00     1.000000000E+00
     1264    -1.379447685E+00     4.426803263E+00     1.000000000E+00
     1265    -1.154527628E+00     4.684102719E+00     2.499955299E-01
     1266    -1.261443444E+00     5.117877234E+00     4.999955299E-01
     1267    -1.491032993E+00     4.784893105E+00     4.999910599E-01
     1268    -1.207572287E+00     4.899313360E+00    -1.346318339E-12
     1269    -1.379447685E+00     4.426803263E+00    -1.346318339E-12
     1270    -1.403422405E+00     5.693908524E+00     1.000000000E+00
     1271    -1.314488103E+00     5.333087876E+00     7.500000000E-01
     1272    -1.622916947E+00     5.208123594E+00     1.000000000E+00
     1273    -1.501347464E+00     6.091206105E+00     7.500000000E-01
     1274    -1.866386209E+00     5.989443926E+00     1.000000000E+00
     1275    -1.412413162E+00     5.730385457E+00     5.000000000E-01
     1276    -1.314488103E+00     5.333087876E+00     2.500000000E-01
     1277    -1.645270499E+00     5.279858664E+00     5.000000000E-01
     1278    -1.501347464E+00     6.091206105E+00     2.500000000E-01
     1279    -1.866386209E+00     5.989443926E+00     5.000000000E-01
     1280    -1.403422405E+00     5.693908524E+00    -1.346318339E-12
     1281    -1.866386209E+00     5.989443926E+00    -1.346318339E-12
     1282    -1.622916947E+00     5.208123594E+00    -1.346318339E-12
     1283    -1.354014674E+00     3.570243275E+00     8.385416667E-01
     1284    -1.208914668E+00     3.187646001E+00     1.000000000E+00
     1285    -1.499114681E+00     3.952840548E+00     1.000000000E+00
     1286    -1.567110272E+00     3.481976188E+00     1.000000000E+00
     1287    -1.354014674E+00     3.570243275E+00     3.385416667E-01
     1288    -1.208914668E+00     3.187646001E+00     8.385416667E-01
     1289    -1.499114681E+00     3.952840548E+00     8.385416667E-01
     1290    -1.567110272E+00     3.481976188E+00     6.770833333E-01
     1291    -1.208914668E+00     3.187646001E+00    -1.346318339E-12
     1292    -1.499114681E+00     3.952840548E+00    -1.346318339E-12
     1293    -1.567110272E+00     3.481976188E+00    -1.346318339E-12
     1294    -1.063814661E+00     2.805048728E+00     5.000000000E-01
     1295    -1.231238416E+00     2.735699538E+00    -1.346318339E-12
     1296    -1.231238416E+00     2.735699538E+00     1.000000000E+00
     1297    -1.710716014E+00     4.510787408E+00     7.499955299E-01
     1298    -1.644214687E+00     4.335437822E+00     5.000000000E-01
     1299    -1.789314694E+00     4.718035095E+00     1.000000000E+00
     1300    -1.902982128E+00     4.228252838E+00     1.000000000E+00
     1301    -1.710716014E+00     4.510787408E+00     2.499955299E-01
     1302    -1.869138033E+00     4.928511941E+00     4.999955299E-01
     1303    -2.056916814E+00     4.570281679E+00     4.999910599E-01
     1304    -1.789314694E+00     4.718035095E+00    -1.346318339E-12
     1305    -1.902982128E+00     4.228252838E+00    -1.346318339E-12
     1306    -2.079514707E+00     5.483229642E+00     1.000000000E+00
     1307    -1.947736713E+00     5.135759628E+00     7.500000000E-01
     1308    -2.238853984E+00     4.974529488E+00     1.000000000E+00
     1309    -2.224614713E+00     5.865826915E+00     7.500000000E-01
     1310    -2.574725840E+00     5.720806139E+00     1.000000000E+00
     1311    -2.092836719E+00     5.518356902E+00     5.000000000E-01
     1312    -1.947736713E+00     5.135759628E+00     2.500000000E-01
     1313    -2.269691260E+00     5.043047106E+00     5.000000000E-01
     1314    -2.224614713E+00     5.865826915E+00     2.500000000E-01
     1315    -2.574725840E+00     5.720806139E+00     5.000000000E-01
     1316    -2.079514707E+00     5.483229642E+00    -1.346318339E-12
     1317    -2.574725840E+00     5.720806139E+00    -1.346318339E-12
     1318    -2.238853984E+00     4.974529488E+00    -1.346318339E-12
     1319    -1.774487655E+00     3.381003748E+00     8.385416667E-01
     1320    -1.584328585E+00     3.018685912E+00     1.000000000E+00
     1321    -1.964646724E+00     3.743321583E+00     1.000000000E+00
     1322    -1.975390124E+00     3.267694392E+00     1.000000000E+00
     1323    -1.774487655E+00     3.381003748E+00     3.385416667E-01
     1324    -1.584328585E+00     3.018685912E+00     8.385416667E-01
     1325    -1.964646724E+00     3.743321583E+00     8.385416667E-01
     1326    -1.975390124E+00     3.267694392E+00     6.770833333E-01
     1327    -1.584328585E+00     3.018685912E+00    -1.346318339E-12
     1328    -1.964646724E+00     3.743321583E+00    -1.346318339E-12
     1329    -1.975390124E+00     3.267694392E+00    -1.346318339E-12
     1330    -1.394169516E+00     2.656368077E+00     5.000000000E-01
     1331    -1.552013443E+00     2.567343817E+00    -1.346318339E-12
     1332    -1.552013443E+00     2.567343817E+00     1.000000000E+00
     1333    -2.241958307E+00     4.271694660E+00     7.499955299E-01
     1334    -2.154805793E+00     4.105639419E+00     5.000000000E-01
     1335    -2.344964863E+00     4.467957254E+00     1.000000000E+00
     1336    -2.398766806E+00     3.968044966E+00     1.000000000E+00
     1337    -2.241958307E+00     4.271694660E+00     2.499955299E-01
     1338    -2.449576380E+00     4.667277847E+00     4.999955299E-01
     1339    -2.592806156E+00     4.289025256E+00     4.999910599E-01
     1340    -2.344964863E+00     4.467957254E+00    -1.346318339E-12
     1341    -2.398766806E+00     3.968044966E+00    -1.346318339E-12
     1342    -2.725283001E+00     5.192592925E+00     1.000000000E+00
     1343    -2.552582935E+00     4.863540441E+00     7.500000000E-01
     1344    -2.822143488E+00     4.668395541E+00     1.000000000E+00
     1345    -2.915442071E+00     5.554910760E+00     7.500000000E-01
     1346    -3.245520170E+00     5.368746115E+00     1.000000000E+00
     1347    -2.742742005E+00     5.225858276E+00     5.000000000E-01
     1348    -2.552582935E+00     4.863540441E+00     2.500000000E-01
     1349    -2.861014812E+00     4.732696565E+00     5.000000000E-01
     1350    -2.915442071E+00     5.554910760E+00     2.500000000E-01
     1351    -3.245520170E+00     5.368746115E+00     5.000000000E-01
     1352    -2.725283001E+00     5.192592925E+00    -1.346318339E-12
     1353    -3.245520170E+00     5.368746115E+00    -1.346318339E-12
     1354    -2.822143488E+00     4.668395541E+00    -1.346318339E-12
     1355    -2.169084610E+00     3.142461573E+00     8.385416667E-01
     1356    -1.936639425E+00     2.805706585E+00     1.000000000E+00
     1357    -2.401529794E+00     3.479216560E+00     1.000000000E+00
     1358    -2.354864340E+00     3.005762253E+00     1.000000000E+00
     1359    -2.169084610E+00     3.142461573E+00     3.385416667E-01
     1360    -1.936639425E+00     2.805706585E+00     8.385416667E-01
     1361    -2.401529794E+00     3.479216560E+00     8.385416667E-01
     1362    -2.354864340E+00     3.005762253E+00     6.770833333E-01
     1363    -1.936639425E+00     2.805706585E+00    -1.346318339E-12
     1364    -2.401529794E+00     3.479216560E+00    -1.346318339E-12
     1365    -2.354864340E+00     3.005762253E+00    -1.346318339E-12
     1366    -1.704194240E+00     2.468951598E+00     5.000000000E-01
     1367    -1.850156618E+00     2.361550442E+00    -1.346318339E-12
     1368    -1.850156618E+00     2.361550442E+00     1.000000000E+00
     1369    -2.740507801E+00     3.970310985E+00     7.499955299E-01
     1370    -2.633974979E+00     3.815971548E+00     5.000000000E-01
     1371    -2.866420164E+00     4.152726535E+00     1.000000000E+00
     1372    -2.859572063E+00     3.649974063E+00     1.000000000E+00
     1373    -2.740507800E+00     3.970310985E+00     2.499955299E-01
     1374    -2.994294388E+00     4.337984332E+00     4.999955299E-01
     1375    -3.090886546E+00     3.945225186E+00     4.999910599E-01
     1376    -2.866420164E+00     4.152726535E+00    -1.346318339E-12
     1377    -2.859572063E+00     3.649974063E+00    -1.346318339E-12
     1378    -3.331310533E+00     4.826236511E+00     1.000000000E+00
     1379    -3.120206751E+00     4.520399882E+00     7.500000000E-01
     1380    -3.364279785E+00     4.294185874E+00     1.000000000E+00
     1381    -3.563755718E+00     5.162991498E+00     7.500000000E-01
     1382    -3.868987508E+00     4.938397685E+00     1.000000000E+00
     1383    -3.352651936E+00     4.857154870E+00     5.000000000E-01
     1384    -3.120206751E+00     4.520399882E+00     2.500000000E-01
     1385    -3.410618326E+00     4.353332651E+00     5.000000000E-01
     1386    -3.563755718E+00     5.162991498E+00     2.500000000E-01
     1387    -3.868987508E+00     4.938397685E+00     5.000000000E-01
     1388    -3.331310533E+00     4.826236511E+00    -1.346318339E-12
     1389    -3.868987508E+00     4.938397685E+00    -1.346318339E-12
     1390    -3.364279785E+00     4.294185874E+00    -1.346318339E-12
     1391    -2.532051426E+00     2.858095232E+00     8.385416667E-01
     1392    -2.260709701E+00     2.551813738E+00     1.000000000E+00
     1393    -2.803393152E+00     3.164376725E+00     1.000000000E+00
     1394    -2.699999331E+00     2.699999331E+00     1.000000000E+00
     1395    -2.532051426E+00     2.858095232E+00     3.385416667E-01
     1396    -2.260709701E+00     2.551813738E+00     8.385416667E-01
     1397    -2.803393152E+00     3.164376725E+00     8.385416667E-01
     1398    -2.699999331E+00     2.699999331E+00     6.770833333E-01
     1399    -2.260709701E+00     2.551813738E+00    -1.346318339E-12
     1400    -2.803393152E+00     3.164376725E+00    -1.346318339E-12
     1401    -2.699999331E+00     2.699999331E+00    -1.346318339E-12
     1402    -1.989367975E+00     2.245532245E+00     5.000000000E-01
     1403    -2.121320344E+00     2.121320344E+00    -1.346318339E-12
     1404    -2.121320344E+00     2.121320344E+00     1.000000000E+00
     1405    -3.199094519E+00     3.611031235E+00     7.499955299E-01
     1406    -3.074734878E+00     3.470658219E+00     5.000000000E-01
     1407    -3.346076604E+00     3.776939713E+00     1.000000000E+00
     1408    -3.278678319E+00     3.278678319E+00     1.000000000E+00
     1409    -3.199094519E+00     3.611031235E+00     2.499955299E-01
     1410    -3.495348841E+00     3.945433237E+00     4.999955299E-01
     1411    -3.543894850E+00     3.543894850E+00     4.999910599E-01
     1412    -3.346076604E+00     3.776939713E+00    -1.346318339E-12
     1413    -3.278678319E+00     3.278678319E+00    -1.346318339E-12
     1414    -3.888760056E+00     4.389502700E+00     1.000000000E+00
     1415    -3.642330926E+00     4.111341714E+00     7.500000000E-01
     1416    -3.857357307E+00     3.857357307E+00     1.000000000E+00
     1417    -4.160101782E+00     4.695784194E+00     7.500000000E-01
     1418    -4.436036295E+00     4.436036295E+00     1.000000000E+00
     1419    -3.913672652E+00     4.417623208E+00     5.000000000E-01
     1420    -3.642330926E+00     4.111341714E+00     2.500000000E-01
     1421    -3.910487344E+00     3.910487344E+00     5.000000000E-01
     1422    -4.160101782E+00     4.695784194E+00     2.500000000E-01
     1423    -4.436036295E+00     4.436036295E+00     5.000000000E-01
     1424    -3.888760056E+00     4.389502700E+00    -1.346318339E-12
     1425    -4.436036295E+00     4.436036295E+00    -1.346318339E-12
     1426    -3.857357307E+00     3.857357307E+00    -1.346318339E-12
     1427    -2.858095232E+00     2.532051426E+00     8.385416667E-01
     1428    -2.551813738E+00     2.260709701E+00     1.000000000E+00
     1429    -3.164376725E+00     2.803393152E+00     1.000000000E+00
     1430    -3.005762253E+00     2.354864340E+00     1.000000000E+00
     1431    -2.858095232E+00     2.532051426E+00     3.385416667E-01
     1432    -2.551813738E+00     2.260709701E+00     8.385416667E-01
     1433    -3.164376725E+00     2.803393152E+00     8.385416667E-01
     1434    -3.005762253E+00     2.354864340E+00     6.770833333E-01
     1435    -2.551813738E+00     2.260709701E+00    -1.346318339E-12
     1436    -3.164376725E+00     2.803393152E+00    -1.346318339E-12
     1437    -3.005762253E+00     2.354864340E+00    -1.346318339E-12
     1438    -2.245532245E+00     1.989367975E+00     5.000000000E-01
     1439    -2.361550442E+00     1.850156618E+00    -1.346318339E-12
     1440    -2.361550442E+00     1.850156618E+00     1.000000000E+00
     1441    -3.611031235E+00     3.199094519E+00     7.499955299E-01
     1442    -3.470658219E+00     3.074734878E+00     5.000000000E-01
     1443    -3.776939713E+00     3.346076604E+00     1.000000000E+00
     1444    -3.649974063E+00     2.859572063E+00     1.000000000E+00
     1445    -3.611031235E+00     3.199094519E+00     2.499955299E-01
     1446    -3.945433237E+00     3.495348841E+00     4.999955299E-01
     1447    -3.945225186E+00     3.090886546E+00     4.999910599E-01
     1448    -3.776939713E+00     3.346076604E+00    -1.346318339E-12
     1449    -3.649974063E+00     2.859572063E+00    -1.346318339E-12
     1450    -4.389502700E+00     3.888760056E+00     1.000000000E+00
     1451    -4.111341714E+00     3.642330926E+00     7.500000000E-01
     1452    -4.294185874E+00     3.364279785E+00     1.000000000E+00
     1453    -4.695784194E+00     4.160101782E+00     7.500000000E-01
     1454    -4.938397685E+00     3.868987508E+00     1.000000000E+00
     1455    -4.417623208E+00     3.913672652E+00     5.000000000E-01
     1456    -4.111341714E+00     3.642330926E+00     2.500000000E-01
     1457    -4.353332651E+00     3.410618326E+00     5.000000000E-01
     1458    -4.695784194E+00     4.160101782E+00     2.500000000E-01
     1459    -4.938397685E+00     3.868987508E+00     5.000000000E-01
     1460    -4.389502700E+00     3.888760056E+00    -1.346318339E-12
     1461    -4.938397685E+00     3.868987508E+00    -1.346318339E-12
     1462    -4.294185874E+00     3.364279785E+00    -1.346318339E-12
     1463    -3.142461573E+00     2.169084610E+00     8.385416667E-01
     1464    -2.805706585E+00     1.936639425E+00     1.000000000E+00
     1465    -3.479216560E+00     2.401529794E+00     1.000000000E+00
     1466    -3.267694392E+00     1.975390124E+00     1.000000000E+00
     1467    -3.142461573E+00     2.169084610E+00     3.385416667E-01
     1468    -2.805706585E+00     1.936639425E+00     8.385416667E-01
     1469    -3.479216560E+00     2.401529794E+00     8.385416667E-01
     1470    -3.267694392E+00     1.975390124E+00     6.770833333E-01
     1471    -2.805706585E+00     1.936639425E+00    -1.346318339E-12
     1472    -3.479216560E+00     2.401529794E+00    -1.346318339E-12
     1473    -3.267694392E+00     1.975390124E+00    -1.346318339E-12
     1474    -2.468951598E+00     1.704194240E+00     5.000000000E-01
     1475    -2.567343817E+00     1.552013443E+00    -1.346318339E-12
     1476    -2.567343817E+00     1.552013443E+00     1.000000000E+00
     1477    -3.970310985E+00     2.740507800E+00     7.499955299E-01
     1478    -3.815971548E+00     2.633974979E+00     5.000000000E-01
     1479    -4.152726535E+00     2.866420164E+00     1.000000000E+00
     1480    -3.968044966E+00     2.398766806E+00     1.000000000E+00
     1481    -3.970310985E+00     2.740507800E+00     2.499955299E-01
     1482    -4.337984332E+00     2.994294388E+00     4.999955299E-01
     1483    -4.289025256E+00     2.592806156E+00     4.999910599E-01
     1484    -4.152726535E+00     2.866420164E+00    -1.346318339E-12
     1485    -3.968044966E+00     2.398766806E+00    -1.346318339E-12
     1486    -4.826236511E+00     3.331310533E+00     1.000000000E+00
     1487    -4.520399882E+00     3.120206751E+00     7.500000000E-01
     1488    -4.668395541E+00     2.822143488E+00     1.000000000E+00
     1489    -5.162991498E+00     3.563755718E+00     7.500000000E-01
     1490    -5.368746115E+00     3.245520170E+00     1.000000000E+00
     1491    -4.857154870E+00     3.352651936E+00     5.000000000E-01
     1492    -4.520399882E+00     3.120206751E+00     2.500000000E-01
     1493    -4.732696565E+00     2.861014812E+00     5.000000000E-01
     1494    -5.162991498E+00     3.563755718E+00     2.500000000E-01
     1495    -5.368746115E+00     3.245520170E+00     5.000000000E-01
     1496    -4.826236511E+00     3.331310533E+00    -1.346318339E-12
     1497    -5.368746115E+00     3.245520170E+00    -1.346318339E-12
     1498    -4.668395541E+00     2.822143488E+00    -1.346318339E-12
     1499    -3.381003748E+00     1.774487655E+00     8.385416667E-01
     1500    -3.018685912E+00     1.584328585E+00     1.000000000E+00
     1501    -3.743321583E+00     1.964646724E+00     1.000000000E+00
     1502    -3.481976188E+00     1.567110272E+00     1.000000000E+00
     1503    -3.381003748E+00     1.774487655E+00     3.385416667E-01
     1504    -3.018685912E+00     1.584328585E+00     8.385416667E-01
     1505    -3.743321583E+00     1.964646724E+00     8.385416667E-01
     1506    -3.481976188E+00     1.567110272E+00     6.770833333E-01
     1507    -3.018685912E+00     1.584328585E+00    -1.346318339E-12
     1508    -3.743321583E+00     1.964646724E+00    -1.346318339E-12
     1509    -3.481976188E+00     1.567110272E+00    -1.346318339E-12
     1510    -2.656368077E+00     1.394169516E+00     5.000000000E-01
     1511    -2.735699538E+00     1.231238416E+00    -1.346318339E-12
     1512    -2.735699538E+00     1.231238416E+00     1.000000000E+00
     1513    -4.271694660E+00     2.241958307E+00     7.499955299E-01
     1514    -4.105639419E+00     2.154805793E+00     5.000000000E-01
     1515    -4.467957254E+00     2.344964863E+00     1.000000000E+00
     1516    -4.228252838E+00     1.902982128E+00     1.000000000E+00
     1517    -4.271694660E+00     2.241958307E+00     2.499955299E-01
     1518    -4.667277847E+00     2.449576380E+00     4.999955299E-01
     1519    -4.570281679E+00     2.056916814E+00     4.999910599E-01
     1520    -4.467957254E+00     2.344964863E+00    -1.346318339E-12
     1521    -4.228252838E+00     1.902982128E+00    -1.346318339E-12
     1522    -5.192592925E+00     2.725283001E+00     1.000000000E+00
     1523    -4.863540441E+00     2.552582935E+00     7.500000000E-01
     1524    -4.974529488E+00     2.238853984E+00     1.000000000E+00
     1525    -5.554910760E+00     2.915442071E+00     7.500000000E-01
     1526    -5.720806139E+00     2.574725840E+00     1.000000000E+00
     1527    -5.225858276E+00     2.742742005E+00     5.000000000E-01
     1528    -4.863540441E+00     2.552582935E+00     2.500000000E-01
     1529    -5.043047106E+00     2.269691260E+00     5.000000000E-01
     1530    -5.554910760E+00     2.915442071E+00     2.500000000E-01
     1531    -5.720806139E+00     2.574725840E+00     5.000000000E-01
     1532    -5.192592925E+00     2.725283001E+00    -1.346318339E-12
     1533    -5.720806139E+00     2.574725840E+00    -1.346318339E-12
     1534    -4.974529488E+00     2.238853984E+00    -1.346318339E-12
     1535    -3.570243275E+00     1.354014674E+00     8.385416667E-01
     1536    -3.187646001E+00     1.208914668E+00     1.000000000E+00
     1537    -3.952840548E+00     1.499114681E+00     1.000000000E+00
     1538    -3.645482931E+00     1.135978423E+00     1.000000000E+00
     1539    -3.570243275E+00     1.354014674E+00     3.385416667E-01
     1540    -3.187646001E+00     1.208914668E+00     8.385416667E-01
     1541    -3.952840548E+00     1.499114681E+00     8.385416667E-01
     1542    -3.645482931E+00     1.135978423E+00     6.770833333E-01
     1543    -3.187646001E+00     1.208914668E+00    -1.346318339E-12
     1544    -3.952840548E+00     1.499114681E+00    -1.346318339E-12
     1545    -3.645482931E+00     1.135978423E+00    -1.346318339E-12
     1546    -2.805048728E+00     1.063814661E+00     5.000000000E-01
     1547    -2.864162600E+00     8.925091616E-01    -1.346318339E-12
     1548    -2.864162600E+00     8.925091616E-01     1.000000000E+00
     1549    -4.510787408E+00     1.710716014E+00     7.499955299E-01
     1550    -4.335437822E+00     1.644214687E+00     5.000000000E-01
     1551    -4.718035095E+00     1.789314694E+00     1.000000000E+00
     1552    -4.426803263E+00     1.379447685E+00     1.000000000E+00
     1553    -4.510787408E+00     1.710716014E+00     2.499955299E-01
     1554    -4.928511941E+00     1.869138033E+00     4.999955299E-01
     1555    -4.784893105E+00     1.491032993E+00     4.999910599E-01
     1556    -4.718035095E+00     1.789314694E+00    -1.346318339E-12
     1557    -4.426803263E+00     1.379447685E+00    -1.346318339E-12
     1558    -5.483229642E+00     2.079514707E+00     1.000000000E+00
     1559    -5.135759628E+00     1.947736713E+00     7.500000000E-01
     1560    -5.208123594E+00     1.622916947E+00     1.000000000E+00
     1561    -5.865826915E+00     2.224614713E+00     7.500000000E-01
     1562    -5.989443926E+00     1.866386209E+00     1.000000000E+00
     1563    -5.518356902E+00     2.092836719E+00     5.000000000E-01
     1564    -5.135759628E+00     1.947736713E+00     2.500000000E-01
     1565    -5.279858664E+00     1.645270499E+00     5.000000000E-01
     1566    -5.865826915E+00     2.224614713E+00     2.500000000E-01
     1567    -5.989443926E+00     1.866386209E+00     5.000000000E-01
     1568    -5.483229642E+00     2.079514707E+00    -1.346318339E-12
     1569    -5.989443926E+00     1.866386209E+00    -1.346318339E-12
     1570    -5.208123594E+00     1.622916947E+00    -1.346318339E-12
     1571    -3.707420616E+00     9.137971107E-01     8.385416667E-01
     1572    -3.310123034E+00     8.158720518E-01     1.000000000E+00
     1573    -4.104718197E+00     1.011722170E+00     1.000000000E+00
     1574    -3.755830324E+00     6.882814513E-01     1.000000000E+00
     1575    -3.707420616E+00     9.137971107E-01     3.385416667E-01
     1576    -3.310123034E+00     8.158720518E-01     8.385416667E-01
     1577    -4.104718197E+00     1.011722170E+00     8.385416667E-01
     1578    -3.755830324E+00     6.882814513E-01     6.770833333E-01
     1579    -3.310123034E+00     8.158720518E-01    -1.346318339E-12
     1580    -4.104718197E+00     1.011722170E+00    -1.346318339E-12
     1581    -3.755830324E+00     6.882814513E-01    -1.346318339E-12
     1582    -2.912825452E+00     7.179469929E-01     5.000000000E-01
     1583    -2.950859721E+00     5.407651134E-01    -1.346318339E-12
     1584    -2.950859721E+00     5.407651134E-01     1.000000000E+00
     1585    -4.684102719E+00     1.154527628E+00     7.499955299E-01
     1586    -4.502015779E+00     1.109647228E+00     5.000000000E-01
     1587    -4.899313360E+00     1.207572287E+00     1.000000000E+00
     1588    -4.560800927E+00     8.357977892E-01     1.000000000E+00
     1589    -4.684102719E+00     1.154527628E+00     2.499955299E-01
     1590    -5.117877234E+00     1.261443444E+00     4.999955299E-01
     1591    -4.929730014E+00     9.034065534E-01     4.999910599E-01
     1592    -4.899313360E+00     1.207572287E+00    -1.346318339E-12
     1593    -4.560800927E+00     8.357977892E-01    -1.346318339E-12
     1594    -5.693908524E+00     1.403422405E+00     1.000000000E+00
     1595    -5.333087876E+00     1.314488103E+00     7.500000000E-01
     1596    -5.365771531E+00     9.833141271E-01     1.000000000E+00
     1597    -6.091206105E+00     1.501347464E+00     7.500000000E-01
     1598    -6.170742134E+00     1.130830465E+00     1.000000000E+00
     1599    -5.730385457E+00     1.412413162E+00     5.000000000E-01
     1600    -5.333087876E+00     1.314488103E+00     2.500000000E-01
     1601    -5.439677994E+00     9.968579892E-01     5.000000000E-01
     1602    -6.091206105E+00     1.501347464E+00     2.500000000E-01
     1603    -6.170742134E+00     1.130830465E+00     5.000000000E-01
     1604    -5.693908524E+00     1.403422405E+00    -1.346318339E-12
     1605    -6.170742134E+00     1.130830465E+00    -1.346318339E-12
     1606    -5.365771531E+00     9.833141271E-01    -1.346318339E-12
     1607    -3.790535415E+00     4.602543276E-01     8.385416667E-01
     1608    -3.384331019E+00     4.109321842E-01     1.000000000E+00
     1609    -4.196739812E+00     5.095764710E-01     1.000000000E+00
     1610    -3.811409254E+00     2.305477857E-01     1.000000000E+00
     1611    -3.790535415E+00     4.602543276E-01     3.385416667E-01
     1612    -3.384331019E+00     4.109321842E-01     8.385416667E-01
     1613    -4.196739812E+00     5.095764710E-01     8.385416667E-01
     1614    -3.811409254E+00     2.305477857E-01     6.770833333E-01
     1615    -3.384331019E+00     4.109321842E-01    -1.346318339E-12
     1616    -4.196739812E+00     5.095764710E-01    -1.346318339E-12
     1617    -3.811409254E+00     2.305477857E-01    -1.346318339E-12
     1618    -2.978126622E+00     3.616100408E-01     5.000000000E-01
     1619    -2.994526663E+00     1.811354923E-01    -1.346318339E-12
     1620    -2.994526663E+00     1.811354923E-01     1.000000000E+00
     1621    -4.789113263E+00     5.815036303E-01     7.499955299E-01
     1622    -4.602944208E+00     5.588986144E-01     5.000000000E-01
     1623    -5.009148605E+00     6.082207578E-01     1.000000000E+00
     1624    -4.628291845E+00     2.799600792E-01     1.000000000E+00
     1625    -4.789113263E+00     5.815036303E-01     2.499955299E-01
     1626    -5.232612352E+00     6.353541692E-01     4.999955299E-01
     1627    -5.002680358E+00     3.026064121E-01     4.999910599E-01
     1628    -5.009148605E+00     6.082207578E-01    -1.346318339E-12
     1629    -4.628291845E+00     2.799600792E-01    -1.346318339E-12
     1630    -5.821557397E+00     7.068650446E-01     1.000000000E+00
     1631    -5.452647693E+00     6.620712967E-01     7.500000000E-01
     1632    -5.445174435E+00     3.293723727E-01     1.000000000E+00
     1633    -6.227761794E+00     7.561871881E-01     7.500000000E-01
     1634    -6.262057026E+00     3.787846661E-01     1.000000000E+00
     1635    -5.858852089E+00     7.113934401E-01     5.000000000E-01
     1636    -5.452647693E+00     6.620712967E-01     2.500000000E-01
     1637    -5.520174570E+00     3.339090450E-01     5.000000000E-01
     1638    -6.227761794E+00     7.561871881E-01     2.500000000E-01
     1639    -6.262057026E+00     3.787846661E-01     5.000000000E-01
     1640    -5.821557397E+00     7.068650446E-01    -1.346318339E-12
     1641    -6.262057026E+00     3.787846661E-01    -1.346318339E-12
     1642    -5.445174435E+00     3.293723727E-01    -1.346318339E-12
     1643    -3.818375673E+00    -1.973247954E-14     8.385416667E-01
     1644    -3.409187836E+00    -2.244298497E-14     1.000000000E+00
     1645    -4.227563509E+00    -1.994931997E-14     1.000000000E+00
     1646    -3.811409254E+00    -2.305477857E-01     1.000000000E+00
     1647    -3.818375673E+00    -2.309350627E-14     3.385416667E-01
     1648    -3.409187836E+00    -2.065405139E-14     8.385416667E-01
     1649    -4.227563509E+00    -2.276824562E-14     8.385416667E-01
     1650    -3.811409254E+00    -2.305477857E-01     6.770833333E-01
     1651    -3.409187836E+00    -2.211772432E-14    -1.346318339E-12
     1652    -4.227563509E+00    -2.320192649E-14    -1.346318339E-12
     1653    -3.811409254E+00    -2.305477857E-01    -1.346318339E-12
     1654    -3.000000000E+00    -2.108773225E-14     5.000000000E-01
     1655    -2.994526663E+00    -1.811354923E-01    -1.346318339E-12
     1656    -2.994526663E+00    -1.811354923E-01     1.000000000E+00
     1657    -4.824287753E+00    -2.168404345E-14     7.499955299E-01
     1658    -4.636751346E+00    -1.886511780E-14     5.000000000E-01
     1659    -5.045939182E+00    -2.179246367E-14     1.000000000E+00
     1660    -4.628291845E+00    -2.799600792E-01     1.000000000E+00
     1661    -4.824287753E+00    -2.244298497E-14     2.499955299E-01
     1662    -5.271044198E+00    -1.853985715E-14     4.999955299E-01
     1663    -5.002680358E+00    -3.026064121E-01     4.999910599E-01
     1664    -5.045939182E+00    -2.070826149E-14    -1.346318339E-12
     1665    -4.628291845E+00    -2.799600792E-01    -1.346318339E-12
     1666    -5.864314855E+00    -2.515349040E-14     1.000000000E+00
     1667    -5.492695628E+00    -2.081668171E-14     7.500000000E-01
     1668    -5.445174435E+00    -3.293723727E-01     1.000000000E+00
     1669    -6.273502692E+00    -1.940721889E-14     7.500000000E-01
     1670    -6.262057026E+00    -3.787846661E-01     1.000000000E+00
     1671    -5.901883465E+00    -2.417770845E-14     5.000000000E-01
     1672    -5.492695628E+00    -2.049142106E-14     2.500000000E-01
     1673    -5.520174570E+00    -3.339090450E-01     5.000000000E-01
     1674    -6.273502692E+00    -1.940721889E-14     2.500000000E-01
     1675    -6.262057026E+00    -3.787846661E-01     5.000000000E-01
     1676    -5.864314855E+00    -1.919037845E-14    -1.346318339E-12
     1677    -6.262057026E+00    -3.787846661E-01    -1.346318339E-12
     1678    -5.445174435E+00    -3.293723727E-01    -1.346318339E-12
     1679    -3.790535415E+00    -4.602543276E-01     8.385416667E-01
     1680    -3.384331019E+00    -4.109321842E-01     1.000000000E+00
     1681    -4.196739812E+00    -5.095764710E-01     1.000000000E+00
     1682    -3.755830324E+00    -6.882814513E-01     1.000000000E+00
     1683    -3.790535415E+00    -4.602543276E-01     3.385416667E-01
     1684    -3.384331019E+00    -4.109321842E-01     8.385416667E-01
     1685    -4.196739812E+00    -5.095764710E-01     8.385416667E-01
     1686    -3.755830324E+00    -6.882814513E-01     6.770833333E-01
     1687    -3.384331019E+00    -4.109321842E-01    -1.346318339E-12
     1688    -4.196739812E+00    -5.095764710E-01    -1.346318339E-12
     1689    -3.755830324E+00    -6.882814513E-01    -1.346318339E-12
     1690    -2.978126622E+00    -3.616100408E-01     5.000000000E-01
     1691    -2.950859721E+00    -5.407651134E-01    -1.346318339E-12
     1692    -2.950859721E+00    -5.407651134E-01     1.000000000E+00
     1693    -4.789113263E+00    -5.815036303E-01     7.499955299E-01
     1694    -4.602944208E+00    -5.588986144E-01     5.000000000E-01
     1695    -5.009148605E+00    -6.082207578E-01     1.000000000E+00
     1696    -4.560800927E+00    -8.357977892E-01     1.000000000E+00
     1697    -4.789113263E+00    -5.815036303E-01     2.499955299E-01
     1698    -5.232612352E+00    -6.353541692E-01     4.999955299E-01
     1699    -4.929730014E+00    -9.034065534E-01     4.999910599E-01
     1700    -5.009148605E+00    -6.082207578E-01    -1.346318339E-12
     1701    -4.560800927E+00    -8.357977892E-01    -1.346318339E-12
     1702    -5.821557397E+00    -7.068650446E-01     1.000000000E+00
     1703    -5.452647693E+00    -6.620712967E-01     7.500000000E-01
     1704    -5.365771531E+00    -9.833141271E-01     1.000000000E+00
     1705    -6.227761794E+00    -7.561871881E-01     7.500000000E-01
     1706    -6.170742134E+00    -1.130830465E+00     1.000000000E+00
     1707    -5.858852089E+00    -7.113934401E-01     5.000000000E-01
     1708    -5.452647693E+00    -6.620712967E-01     2.500000000E-01
     1709    -5.439677994E+00    -9.968579892E-01     5.000000000E-01
     1710    -6.227761794E+00    -7.561871881E-01     2.500000000E-01
     1711    -6.170742134E+00    -1.130830465E+00     5.000000000E-01
     1712    -5.821557397E+00    -7.068650446E-01    -1.346318339E-12
     1713    -6.170742134E+00    -1.130830465E+00    -1.346318339E-12
     1714    -5.365771531E+00    -9.833141271E-01    -1.346318339E-12
     1715    -3.707420616E+00    -9.137971107E-01     8.385416667E-01
     1716    -3.310123034E+00    -8.158720518E-01     1.000000000E+00
     1717    -4.104718197E+00    -1.011722170E+00     1.000000000E+00
     1718    -3.645482931E+00    -1.135978423E+00     1.000000000E+00
     1719    -3.707420616E+00    -9.137971107E-01     3.385416667E-01
     1720    -3.310123034E+00    -8.158720518E-01     8.385416667E-01
     1721    -4.104718197E+00    -1.011722170E+00     8.385416667E-01
     1722    -3.645482931E+00    -1.135978423E+00     6.770833333E-01
     1723    -3.310123034E+00    -8.158720518E-01    -1.346318339E-12
     1724    -4.104718197E+00    -1.011722170E+00    -1.346318339E-12
     1725    -3.645482931E+00    -1.135978423E+00    -1.346318339E-12
     1726    -2.912825452E+00    -7.179469929E-01     5.000000000E-01
     1727    -2.864162600E+00    -8.925091616E-01    -1.346318339E-12
     1728    -2.864162600E+00    -8.925091616E-01     1.000000000E+00
     1729    -4.684102719E+00    -1.154527628E+00     7.499955299E-01
     1730    -4.502015779E+00    -1.109647228E+00     5.000000000E-01
     1731    -4.899313360E+00    -1.207572287E+00     1.000000000E+00
     1732    -4.426803263E+00    -1.379447685E+00     1.000000000E+00
     1733    -4.684102719E+00    -1.154527628E+00     2.499955299E-01
     1734    -5.117877234E+00    -1.261443444E+00     4.999955299E-01
     1735    -4.784893105E+00    -1.491032993E+00     4.999910599E-01
     1736    -4.899313360E+00    -1.207572287E+00    -1.346318339E-12
     1737    -4.426803263E+00    -1.379447685E+00    -1.346318339E-12
     1738    -5.693908524E+00    -1.403422405E+00     1.000000000E+00
     1739    -5.333087876E+00    -1.314488103E+00     7.500000000E-01
     1740    -5.208123594E+00    -1.622916947E+00     1.000000000E+00
     1741    -6.091206105E+00    -1.501347464E+00     7.500000000E-01
     1742    -5.989443926E+00    -1.866386209E+00     1.000000000E+00
     1743    -5.730385457E+00    -1.412413162E+00     5.000000000E-01
     1744    -5.333087876E+00    -1.314488103E+00     2.500000000E-01
     1745    -5.279858664E+00    -1.645270499E+00     5.000000000E-01
     1746    -6.091206105E+00    -1.501347464E+00     2.500000000E-01
     1747    -5.989443926E+00    -1.866386209E+00     5.000000000E-01
     1748    -5.693908524E+00    -1.403422405E+00    -1.346318339E-12
     1749    -5.989443926E+00    -1.866386209E+00    -1.346318339E-12
     1750    -5.208123594E+00    -1.622916947E+00    -1.346318339E-12
     1751    -3.570243275E+00    -1.354014674E+00     8.385416667E-01
     1752    -3.187646001E+00    -1.208914668E+00     1.000000000E+00
     1753    -3.952840548E+00    -1.499114681E+00     1.000000000E+00
     1754    -3.481976188E+00    -1.567110272E+00     1.000000000E+00
     1755    -3.570243275E+00    -1.354014674E+00     3.385416667E-01
     1756    -3.187646001E+00    -1.208914668E+00     8.385416667E-01
     1757    -3.952840548E+00    -1.499114681E+00     8.385416667E-01
     1758    -3.481976188E+00    -1.567110272E+00     6.770833333E-01
     1759    -3.187646001E+00    -1.208914668E+00    -1.346318339E-12
     1760    -3.952840548E+00    -1.499114681E+00    -1.346318339E-12
     1761    -3.481976188E+00    -1.567110272E+00    -1.346318339E-12
     1762    -2.805048728E+00    -1.063814661E+00     5.000000000E-01
     1763    -2.735699538E+00    -1.231238416E+00    -1.346318339E-12
     1764    -2.735699538E+00    -1.231238416E+00     1.000000000E+00
     1765    -4.510787408E+00    -1.710716014E+00     7.499955299E-01
     1766    -4.335437822E+00    -1.644214687E+00     5.000000000E-01
     1767    -4.718035095E+00    -1.789314694E+00     1.000000000E+00
     1768    -4.228252838E+00    -1.902982128E+00     1.000000000E+00
     1769    -4.510787408E+00    -1.710716014E+00     2.499955299E-01
     1770    -4.928511941E+00    -1.869138033E+00     4.999955299E-01
     1771    -4.570281679E+00    -2.056916814E+00     4.999910599E-01
     1772    -4.718035095E+00    -1.789314694E+00    -1.346318339E-12
     1773    -4.228252838E+00    -1.902982128E+00    -1.346318339E-12
     1774    -5.483229642E+00    -2.079514707E+00     1.000000000E+00
     1775    -5.135759628E+00    -1.947736713E+00     7.500000000E-01
     1776    -4.974529488E+00    -2.238853984E+00     1.000000000E+00
     1777    -5.865826915E+00    -2.224614713E+00     7.500000000E-01
     1778    -5.720806139E+00    -2.574725840E+00     1.000000000E+00
     1779    -5.518356902E+00    -2.092836719E+00     5.000000000E-01
     1780    -5.135759628E+00    -1.947736713E+00     2.500000000E-01
     1781    -5.043047106E+00    -2.269691260E+00     5.000000000E-01
     1782    -5.865826915E+00    -2.224614713E+00     2.500000000E-01
     1783    -5.720806139E+00    -2.574725840E+00     5.000000000E-01
     1784    -5.483229642E+00    -2.079514707E+00    -1.346318339E-12
     1785    -5.720806139E+00    -2.574725840E+00    -1.346318339E-12
     1786    -4.974529488E+00    -2.238853984E+00    -1.346318339E-12
     1787    -3.381003748E+00    -1.774487655E+00     8.385416667E-01
     1788    -3.018685912E+00    -1.584328585E+00     1.000000000E+00
     1789    -3.743321583E+00    -1.964646724E+00     1.000000000E+00
     1790    -3.267694392E+00    -1.975390124E+00     1.000000000E+00
     1791    -3.381003748E+00    -1.774487655E+00     3.385416667E-01
     1792    -3.018685912E+00    -1.584328585E+00     8.385416667E-01
     1793    -3.743321583E+00    -1.964646724E+00     8.385416667E-01
     1794    -3.267694392E+00    -1.975390124E+00     6.770833333E-01
     1795    -3.018685912E+00    -1.584328585E+00    -1.346318339E-12
     1796    -3.743321583E+00    -1.964646724E+00    -1.346318339E-12
     1797    -3.267694392E+00    -1.975390124E+00    -1.346318339E-12
     1798    -2.656368077E+00    -1.394169516E+00     5.000000000E-01
     1799    -2.567343817E+00    -1.552013443E+00    -1.346318339E-12
     1800    -2.567343817E+00    -1.552013443E+00     1.000000000E+00
     1801    -4.271694660E+00    -2.241958307E+00     7.499955299E-01
     1802    -4.105639419E+00    -2.154805793E+00     5.000000000E-01
     1803    -4.467957254E+00    -2.344964863E+00     1.000000000E+00
     1804    -3.968044966E+00    -2.398766806E+00     1.000000000E+00
     1805    -4.271694660E+00    -2.241958307E+00     2.499955299E-01
     1806    -4.667277847E+00    -2.449576380E+00     4.999955299E-01
     1807    -4.289025256E+00    -2.592806156E+00     4.999910599E-01
     1808    -4.467957254E+00    -2.344964863E+00    -1.346318339E-12
     1809    -3.968044966E+00    -2.398766806E+00    -1.346318339E-12
     1810    -5.192592925E+00    -2.725283001E+00     1.000000000E+00
     1811    -4.863540441E+00    -2.552582935E+00     7.500000000E-01
     1812    -4.668395541E+00    -2.822143488E+00     1.000000000E+00
     1813    -5.554910760E+00    -2.915442071E+00     7.500000000E-01
     1814    -5.368746115E+00    -3.245520170E+00     1.000000000E+00
     1815    -5.225858276E+00    -2.742742005E+00     5.000000000E-01
     1816    -4.863540441E+00    -2.552582935E+00     2.500000000E-01
     1817    -4.732696565E+00    -2.861014812E+00     5.000000000E-01
     1818    -5.554910760E+00    -2.915442071E+00     2.500000000E-01
     1819    -5.368746115E+00    -3.245520170E+00     5.000000000E-01
     1820    -5.192592925E+00    -2.725283001E+00    -1.346318339E-12
     1821    -5.368746115E+00    -3.245520170E+00    -1.346318339E-12
     1822    -4.668395541E+00    -2.822143488E+00    -1.346318339E-12
     1823    -3.142461573E+00    -2.169084610E+00     8.385416667E-01
     1824    -2.805706585E+00    -1.936639425E+00     1.000000000E+00
     1825    -3.479216560E+00    -2.401529794E+00     1.000000000E+00
     1826    -3.005762253E+00    -2.354864340E+00     1.000000000E+00
     1827    -3.142461573E+00    -2.169084610E+00     3.385416667E-01
     1828    -2.805706585E+00    -1.936639425E+00     8.385416667E-01
     1829    -3.479216560E+00    -2.401529794E+00     8.385416667E-01
     1830    -3.005762253E+00    -2.354864340E+00     6.770833333E-01
     1831    -2.805706585E+00    -1.936639425E+00    -1.346318339E-12
     1832    -3.479216560E+00    -2.401529794E+00    -1.346318339E-12
     1833    -3.005762253E+00    -2.354864340E+00    -1.346318339E-12
     1834    -2.468951598E+00    -1.704194240E+00     5.000000000E-01
     1835    -2.361550442E+00    -1.850156618E+00    -1.346318339E-12
     1836    -2.361550442E+00    -1.850156618E+00     1.000000000E+00
     1837    -3.970310985E+00    -2.740507800E+00     7.499955299E-01
     1838    -3.815971548E+00    -2.633974979E+00     5.000000000E-01
     1839    -4.152726535E+00    -2.866420164E+00     1.000000000E+00
     1840    -3.649974063E+00    -2.859572063E+00     1.000000000E+00
     1841    -3.970310985E+00    -2.740507800E+00     2.499955299E-01
     1842    -4.337984332E+00    -2.994294388E+00     4.999955299E-01
     1843    -3.945225186E+00    -3.090886546E+00     4.999910599E-01
     1844    -4.152726535E+00    -2.866420164E+00    -1.346318339E-12
     1845    -3.649974063E+00    -2.859572063E+00    -1.346318339E-12
     1846    -4.826236511E+00    -3.331310533E+00     1.000000000E+00
     1847    -4.520399882E+00    -3.120206751E+00     7.500000000E-01
     1848    -4.294185874E+00    -3.364279785E+00     1.000000000E+00
     1849    -5.162991498E+00    -3.563755718E+00     7.500000000E-01
     1850    -4.938397685E+00    -3.868987508E+00     1.000000000E+00
     1851    -4.857154870E+00    -3.352651936E+00     5.000000000E-01
     1852    -4.520399882E+00    -3.120206751E+00     2.500000000E-01
     1853    -4.353332651E+00    -3.410618326E+00     5.000000000E-01
     1854    -5.162991498E+00    -3.563755718E+00     2.500000000E-01
     1855    -4.938397685E+00    -3.868987508E+00     5.000000000E-01
     1856    -4.826236511E+00    -3.331310533E+00    -1.346318339E-12
     1857    -4.938397685E+00    -3.868987508E+00    -1.346318339E-12
     1858    -4.294185874E+00    -3.364279785E+00    -1.346318339E-12
     1859    -2.858095232E+00    -2.532051426E+00     8.385416667E-01
     1860    -2.551813738E+00    -2.260709701E+00     1.000000000E+00
     1861    -3.164376725E+00    -2.803393152E+00     1.000000000E+00
     1862    -2.699999331E+00    -2.699999331E+00     1.000000000E+00
     1863    -2.858095232E+00    -2.532051426E+00     3.385416667E-01
     1864    -2.551813738E+00    -2.260709701E+00     8.385416667E-01
     1865    -3.164376725E+00    -2.803393152E+00     8.385416667E-01
     1866    -2.699999331E+00    -2.699999331E+00     6.770833333E-01
     1867    -2.551813738E+00    -2.260709701E+00    -1.346318339E-12
     1868    -3.164376725E+00    -2.803393152E+00    -1.346318339E-12
     1869    -2.699999331E+00    -2.699999331E+00    -1.346318339E-12
     1870    -2.245532245E+00    -1.989367975E+00     5.000000000E-01
     1871    -2.121320344E+00    -2.121320344E+00    -1.346318339E-12
     1872    -2.121320344E+00    -2.121320344E+00     1.000000000E+00
     1873    -3.611031235E+00    -3.199094519E+00     7.499955299E-01
     1874    -3.470658219E+00    -3.074734878E+00     5.000000000E-01
     1875    -3.776939713E+00    -3.346076604E+00     1.000000000E+00
     1876    -3.278678319E+00    -3.278678319E+00     1.000000000E+00
     1877    -3.611031235E+00    -3.199094519E+00     2.499955299E-01
     1878    -3.945433237E+00    -3.495348841E+00     4.999955299E-01
     1879    -3.543894850E+00    -3.543894850E+00     4.999910599E-01
     1880    -3.776939713E+00    -3.346076604E+00    -1.346318339E-12
     1881    -3.278678319E+00    -3.278678319E+00    -1.346318339E-12
     1882    -4.389502700E+00    -3.888760056E+00     1.000000000E+00
     1883    -4.111341714E+00    -3.642330926E+00     7.500000000E-01
     1884    -3.857357307E+00    -3.857357307E+00     1.000000000E+00
     1885    -4.695784194E+00    -4.160101782E+00     7.500000000E-01
     1886    -4.436036295E+00    -4.436036295E+00     1.000000000E+00
     1887    -4.417623208E+00    -3.913672652E+00     5.000000000E-01
     1888    -4.111341714E+00    -3.642330926E+00     2.500000000E-01
     1889    -3.910487344E+00    -3.910487344E+00     5.000000000E-01
     1890    -4.695784194E+00    -4.160101782E+00     2.500000000E-01
     1891    -4.436036295E+00    -4.436036295E+00     5.000000000E-01
     1892    -4.389502700E+00    -3.888760056E+00    -1.346318339E-12
     1893    -4.436036295E+00    -4.436036295E+00    -1.346318339E-12
     1894    -3.857357307E+00    -3.857357307E+00    -1.346318339E-12
     1895    -2.532051426E+00    -2.858095232E+00     8.385416667E-01
     1896    -2.260709701E+00    -2.551813738E+00     1.000000000E+00
     1897    -2.803393152E+00    -3.164376725E+00     1.000000000E+00
     1898    -2.354864340E+00    -3.005762253E+00     1.000000000E+00
     1899    -2.532051426E+00    -2.858095232E+00     3.385416667E-01
     1900    -2.260709701E+00    -2.551813738E+00     8.385416667E-01
     1901    -2.803393152E+00    -3.164376725E+00     8.385416667E-01
     1902    -2.354864340E+00    -3.005762253E+00     6.770833333E-01
     1903    -2.260709701E+00    -2.551813738E+00    -1.346318339E-12
     1904    -2.803393152E+00    -3.164376725E+00    -1.346318339E-12
     1905    -2.354864340E+00    -3.005762253E+00    -1.346318339E-12
     1906    -1.989367975E+00    -2.245532245E+00     5.000000000E-01
     1907    -1.850156618E+00    -2.361550442E+00    -1.346318339E-12
     1908    -1.850156618E+00    -2.361550442E+00     1.000000000E+00
     1909    -3.199094519E+00    -3.611031235E+00     7.499955299E-01
     1910    -3.074734878E+00    -3.470658219E+00     5.000000000E-01
     1911    -3.346076604E+00    -3.776939713E+00     1.000000000E+00
     1912    -2.859572063E+00    -3.649974063E+00     1.000000000E+00
     1913    -3.199094519E+00    -3.611031235E+00     2.499955299E-01
     1914    -3.495348841E+00    -3.945433237E+00     4.999955299E-01
     1915    -3.090886546E+00    -3.945225186E+00     4.999910599E-01
     1916    -3.346076604E+00    -3.776939713E+00    -1.346318339E-12
     1917    -2.859572063E+00    -3.649974063E+00    -1.346318339E-12
     1918    -3.888760056E+00    -4.389502700E+00     1.000000000E+00
     1919    -3.642330926E+00    -4.111341714E+00     7.500000000E-01
     1920    -3.364279785E+00    -4.294185874E+00     1.000000000E+00
     1921    -4.160101782E+00    -4.695784194E+00     7.500000000E-01
     1922    -3.868987508E+00    -4.938397685E+00     1.000000000E+00
     1923    -3.913672652E+00    -4.417623208E+00     5.000000000E-01
     1924    -3.642330926E+00    -4.111341714E+00     2.500000000E-01
     1925    -3.410618326E+00    -4.353332651E+00     5.000000000E-01
     1926    -4.160101782E+00    -4.695784194E+00     2.500000000E-01
     1927    -3.868987508E+00    -4.938397685E+00     5.000000000E-01
     1928    -3.888760056E+00    -4.389502700E+00    -1.346318339E-12
     1929    -3.868987508E+00    -4.938397685E+00    -1.346318339E-12
     1930    -3.364279785E+00    -4.294185874E+00    -1.346318339E-12
     1931    -2.169084610E+00    -3.142461573E+00     8.385416667E-01
     1932    -1.936639425E+00    -2.805706585E+00     1.000000000E+00
     1933    -2.401529794E+00    -3.479216560E+00     1.000000000E+00
     1934    -1.975390124E+00    -3.267694392E+00     1.000000000E+00
     1935    -2.169084610E+00    -3.142461573E+00     3.385416667E-01
     1936    -1.936639425E+00    -2.805706585E+00     8.385416667E-01
     1937    -2.401529794E+00    -3.479216560E+00     8.385416667E-01
     1938    -1.975390124E+00    -3.267694392E+00     6.770833333E-01
     1939    -1.936639425E+00    -2.805706585E+00    -1.346318339E-12
     1940    -2.401529794E+00    -3.479216560E+00    -1.346318339E-12
     1941    -1.975390124E+00    -3.267694392E+00    -1.346318339E-12
     1942    -1.704194240E+00    -2.468951598E+00     5.000000000E-01
     1943    -1.552013443E+00    -2.567343817E+00    -1.346318339E-12
     1944    -1.552013443E+00    -2.567343817E+00     1.000000000E+00
     1945    -2.740507801E+00    -3.970310985E+00     7.499955299E-01
     1946    -2.633974979E+00    -3.815971548E+00     5.000000000E-01
     1947    -2.866420164E+00    -4.152726535E+00     1.000000000E+00
     1948    -2.398766806E+00    -3.968044966E+00     1.000000000E+00
     1949    -2.740507801E+00    -3.970310985E+00     2.499955299E-01
     1950    -2.994294388E+00    -4.337984332E+00     4.999955299E-01
     1951    -2.592806156E+00    -4.289025256E+00     4.999910599E-01
     1952    -2.866420164E+00    -4.152726535E+00    -1.346318339E-12
     1953    -2.398766806E+00    -3.968044966E+00    -1.346318339E-12
     1954    -3.331310533E+00    -4.826236511E+00     1.000000000E+00
     1955    -3.120206751E+00    -4.520399882E+00     7.500000000E-01
     1956    -2.822143488E+00    -4.668395541E+00     1.000000000E+00
     1957    -3.563755718E+00    -5.162991498E+00     7.500000000E-01
     1958    -3.245520170E+00    -5.368746115E+00     1.000000000E+00
     1959    -3.352651936E+00    -4.857154870E+00     5.000000000E-01
     1960    -3.120206751E+00    -4.520399882E+00     2.500000000E-01
     1961    -2.861014812E+00    -4.732696565E+00     5.000000000E-01
     1962    -3.563755718E+00    -5.162991498E+00     2.500000000E-01
     1963    -3.245520170E+00    -5.368746115E+00     5.000000000E-01
     1964    -3.331310533E+00    -4.826236511E+00    -1.346318339E-12
     1965    -3.245520170E+00    -5.368746115E+00    -1.346318339E-12
     1966    -2.822143488E+00    -4.668395541E+00    -1.346318339E-12
     1967    -1.774487655E+00    -3.381003748E+00     8.385416667E-01
     1968    -1.584328585E+00    -3.018685912E+00     1.000000000E+00
     1969    -1.964646724E+00    -3.743321583E+00     1.000000000E+00
     1970    -1.567110272E+00    -3.481976188E+00     1.000000000E+00
     1971    -1.774487655E+00    -3.381003748E+00     3.385416667E-01
     1972    -1.584328585E+00    -3.018685912E+00     8.385416667E-01
     1973    -1.964646724E+00    -3.743321583E+00     8.385416667E-01
     1974    -1.567110272E+00    -3.481976188E+00     6.770833333E-01
     1975    -1.584328585E+00    -3.018685912E+00    -1.346318339E-12
     1976    -1.964646724E+00    -3.743321583E+00    -1.346318339E-12
     1977    -1.567110272E+00    -3.481976188E+00    -1.346318339E-12
     1978    -1.394169516E+00    -2.656368077E+00     5.000000000E-01
     1979    -1.231238416E+00    -2.735699538E+00    -1.346318339E-12
     1980    -1.231238416E+00    -2.735699538E+00     1.000000000E+00
     1981    -2.241958307E+00    -4.271694660E+00     7.499955299E-01
     1982    -2.154805793E+00    -4.105639419E+00     5.000000000E-01
     1983    -2.344964863E+00    -4.467957254E+00     1.000000000E+00
     1984    -1.902982128E+00    -4.228252838E+00     1.000000000E+00
     1985    -2.241958307E+00    -4.271694660E+00     2.499955299E-01
     1986    -2.449576380E+00    -4.667277847E+00     4.999955299E-01
     1987    -2.056916814E+00    -4.570281679E+00     4.999910599E-01
     1988    -2.344964863E+00    -4.467957254E+00    -1.346318339E-12
     1989    -1.902982128E+00    -4.228252838E+00    -1.346318339E-12
     1990    -2.725283001E+00    -5.192592925E+00     1.000000000E+00
     1991    -2.552582935E+00    -4.863540441E+00     7.500000000E-01
     1992    -2.238853984E+00    -4.974529488E+00     1.000000000E+00
     1993    -2.915442071E+00    -5.554910760E+00     7.500000000E-01
     1994    -2.574725840E+00    -5.720806139E+00     1.000000000E+00
     1995    -2.742742005E+00    -5.225858276E+00     5.000000000E-01
     1996    -2.552582935E+00    -4.863540441E+00     2.500000000E-01
     1997    -2.269691260E+00    -5.043047106E+00     5.000000000E-01
     1998    -2.915442071E+00    -5.554910760E+00     2.500000000E-01
     1999    -2.574725840E+00    -5.720806139E+00     5.000000000E-01
     2000    -2.725283001E+00    -5.192592925E+00    -1.346318339E-12
     2001    -2.574725840E+00    -5.720806139E+00    -1.346318339E-12
     2002    -2.238853984E+00    -4.974529488E+00    -1.346318339E-12
     2003    -1.354014674E+00    -3.570243275E+00     8.385416667E-01
     2004    -1.208914668E+00    -3.187646001E+00     1.000000000E+00
     2005    -1.499114681E+00    -3.952840548E+00     1.000000000E+00
     2006    -1.135978423E+00    -3.645482931E+00     1.000000000E+00
     2007    -1.354014674E+00    -3.570243275E+00     3.385416667E-01
     2008    -1.208914668E+00    -3.187646001E+00     8.385416667E-01
     2009    -1.499114681E+00    -3.952840548E+00     8.385416667E-01
     2010    -1.135978423E+00    -3.645482931E+00     6.770833333E-01
     2011    -1.208914668E+00    -3.187646001E+00    -1.346318339E-12
     2012    -1.499114681E+00    -3.952840548E+00    -1.346318339E-12
     2013    -1.135978423E+00    -3.645482931E+00    -1.346318339E-12
     2014    -1.063814661E+00    -2.805048728E+00     5.000000000E-01
     2015    -8.925091616E-01    -2.864162600E+00    -1.346318339E-12
     2016    -8.925091616E-01    -2.864162600E+00     1.000000000E+00
     2017    -1.710716014E+00    -4.510787408E+00     7.499955299E-01
     2018    -1.644214687E+00    -4.335437822E+00     5.000000000E-01
     2019    -1.789314694E+00    -4.718035095E+00     1.000000000E+00
     2020    -1.379447685E+00    -4.426803263E+00     1.000000000E+00
     2021    -1.710716014E+00    -4.510787408E+00     2.499955299E-01
     2022    -1.869138033E+00    -4.928511941E+00     4.999955299E-01
     2023    -1.491032993E+00    -4.784893105E+00     4.999910599E-01
     2024    -1.789314694E+00    -4.718035095E+00    -1.346318339E-12
     2025    -1.379447685E+00    -4.426803263E+00    -1.346318339E-12
     2026    -2.079514707E+00    -5.483229642E+00     1.000000000E+00
     2027    -1.947736713E+00    -5.135759628E+00     7.500000000E-01
     2028    -1.622916947E+00    -5.208123594E+00     1.000000000E+00
     2029    -2.224614713E+00    -5.865826915E+00     7.500000000E-01
     2030    -1.866386209E+00    -5.989443926E+00     1.000000000E+00
     2031    -2.092836719E+00    -5.518356902E+00     5.000000000E-01
     2032    -1.947736713E+00    -5.135759628E+00     2.500000000E-01
     2033    -1.645270499E+00    -5.279858664E+00     5.000000000E-01
     2034    -2.224614713E+00    -5.865826915E+00     2.500000000E-01
     2035    -1.866386209E+00    -5.989443926E+00     5.000000000E-01
     2036    -2.079514707E+00    -5.483229642E+00    -1.346318339E-12
     2037    -1.866386209E+00    -5.989443926E+00    -1.346318339E-12
     2038    -1.622916947E+00    -5.208123594E+00    -1.346318339E-12
     2039    -9.137971107E-01    -3.707420616E+00     8.385416667E-01
     2040    -8.158720518E-01    -3.310123034E+00     1.000000000E+00
     2041    -1.011722170E+00    -4.104718197E+00     1.000000000E+00
     2042    -6.882814513E-01    -3.755830324E+00     1.000000000E+00
     2043    -9.137971107E-01    -3.707420616E+00     3.385416667E-01
     2044    -8.158720518E-01    -3.310123034E+00     8.385416667E-01
     2045    -1.011722170E+00    -4.104718197E+00     8.385416667E-01
     2046    -6.882814513E-01    -3.755830324E+00     6.770833333E-01
     2047    -8.158720518E-01    -3.310123034E+00    -1.346318339E-12
     2048    -1.011722170E+00    -4.104718197E+00    -1.346318339E-12
     2049    -6.882814513E-01    -3.755830324E+00    -1.346318339E-12
     2050    -7.179469929E-01    -2.912825452E+00     5.000000000E-01
     2051    -5.407651134E-01    -2.950859721E+00    -1.346318339E-12
     2052    -5.407651134E-01    -2.950859721E+00     1.000000000E+00
     2053    -1.154527628E+00    -4.684102719E+00     7.499955299E-01
     2054    -1.109647228E+00    -4.502015779E+00     5.000000000E-01
     2055    -1.207572287E+00    -4.899313360E+00     1.000000000E+00
     2056    -8.357977892E-01    -4.560800927E+00     1.000000000E+00
     2057    -1.154527628E+00    -4.684102719E+00     2.499955299E-01
     2058    -1.261443444E+00    -5.117877234E+00     4.999955299E-01
     2059    -9.034065534E-01    -4.929730014E+00     4.999910599E-01
     2060    -1.207572287E+00    -4.899313360E+00    -1.346318339E-12
     2061    -8.357977892E-01    -4.560800927E+00    -1.346318339E-12
     2062    -1.403422405E+00    -5.693908524E+00     1.000000000E+00
     2063    -1.314488103E+00    -5.333087876E+00     7.500000000E-01
     2064    -9.833141271E-01    -5.365771531E+00     1.000000000E+00
     2065    -1.501347464E+00    -6.091206105E+00     7.500000000E-01
     2066    -1.130830465E+00    -6.170742134E+00     1.000000000E+00
     2067    -1.412413162E+00    -5.730385457E+00     5.000000000E-01
     2068    -1.314488103E+00    -5.333087876E+00     2.500000000E-01
     2069    -9.968579892E-01    -5.439677994E+00     5.000000000E-01
     2070    -1.501347464E+00    -6.091206105E+00     2.500000000E-01
     2071    -1.130830465E+00    -6.170742134E+00     5.000000000E-01
     2072    -1.403422405E+00    -5.693908524E+00    -1.346318339E-12
     2073    -1.130830465E+00    -6.170742134E+00    -1.346318339E-12
     2074    -9.833141271E-01    -5.365771531E+00    -1.346318339E-12
     2075    -4.602543276E-01    -3.790535415E+00     8.385416667E-01
     2076    -4.109321842E-01    -3.384331019E+00     1.000000000E+00
     2077    -5.095764710E-01    -4.196739812E+00     1.000000000E+00
     2078    -2.305477857E-01    -3.811409254E+00     1.000000000E+00
     2079    -4.602543276E-01    -3.790535415E+00     3.385416667E-01
     2080    -4.109321842E-01    -3.384331019E+00     8.385416667E-01
     2081    -5.095764710E-01    -4.196739812E+00     8.385416667E-01
     2082    -2.305477857E-01    -3.811409254E+00     6.770833333E-01
     2083    -4.109321842E-01    -3.384331019E+00    -1.346318339E-12
     2084    -5.095764710E-01    -4.196739812E+00    -1.346318339E-12
     2085    -2.305477857E-01    -3.811409254E+00    -1.346318339E-12
     2086    -3.616100408E-01    -2.978126622E+00     5.000000000E-01
     2087    -1.811354923E-01    -2.994526663E+00    -1.346318339E-12
     2088    -1.811354923E-01    -2.994526663E+00     1.000000000E+00
     2089    -5.815036303E-01    -4.789113263E+00     7.499955299E-01
     2090    -5.588986144E-01    -4.602944208E+00     5.000000000E-01
     2091    -6.082207578E-01    -5.009148605E+00     1.000000000E+00
     2092    -2.799600792E-01    -4.628291845E+00     1.000000000E+00
     2093    -5.815036303E-01    -4.789113263E+00     2.499955299E-01
     2094    -6.353541692E-01    -5.232612352E+00     4.999955299E-01
     2095    -3.026064121E-01    -5.002680358E+00     4.999910599E-01
     2096    -6.082207578E-01    -5.009148605E+00    -1.346318339E-12
     2097    -2.799600792E-01    -4.628291845E+00    -1.346318339E-12
     2098    -7.068650446E-01    -5.821557397E+00     1.000000000E+00
     2099    -6.620712967E-01    -5.452647693E+00     7.500000000E-01
     2100    -3.293723727E-01    -5.445174435E+00     1.000000000E+00
     2101    -7.561871881E-01    -6.227761794E+00     7.500000000E-01
     2102    -3.787846661E-01    -6.262057026E+00     1.000000000E+00
     2103    -7.113934401E-01    -5.858852089E+00     5.000000000E-01
     2104    -6.620712967E-01    -5.452647693E+00     2.500000000E-01
     2105    -3.339090450E-01    -5.520174570E+00     5.000000000E-01
     2106    -7.561871881E-01    -6.227761794E+00     2.500000000E-01
     2107    -3.787846661E-01    -6.262057026E+00     5.000000000E-01
     2108    -7.068650446E-01    -5.821557397E+00    -1.346318339E-12
     2109    -3.787846661E-01    -6.262057026E+00    -1.346318339E-12
     2110    -3.293723727E-01    -5.445174435E+00    -1.346318339E-12
     2111     4.580754179E-14    -3.818375673E+00     8.385416667E-01
     2112     4.981908983E-14    -3.409187836E+00     1.000000000E+00
     2113     5.182486384E-14    -4.227563509E+00     1.000000000E+00
     2114     2.305477857E-01    -3.811409254E+00     1.000000000E+00
     2115     4.580754179E-14    -3.818375673E+00     3.385416667E-01
     2116     4.531965081E-14    -3.409187836E+00     8.385416667E-01
     2117     5.182486384E-14    -4.227563509E+00     8.385416667E-01
     2118     2.305477857E-01    -3.811409254E+00     6.770833333E-01
     2119     4.987329993E-14    -3.409187836E+00    -1.346318339E-12
     2120     4.629543277E-14    -4.227563509E+00    -1.346318339E-12
     2121     2.305477857E-01    -3.811409254E+00    -1.346318339E-12
     2122     4.889751798E-14    -3.000000000E+00     5.000000000E-01
     2123     1.811354923E-01    -2.994526663E+00    -1.346318339E-12
     2124     1.811354923E-01    -2.994526663E+00     1.000000000E+00
     2125     5.334274689E-14    -4.824287753E+00     7.499955299E-01
     2126     5.280064580E-14    -4.636751346E+00     5.000000000E-01
     2127     4.271756560E-14    -5.045939182E+00     1.000000000E+00
     2128     2.799600792E-01    -4.628291845E+00     1.000000000E+00
     2129     5.334274689E-14    -4.824287753E+00     2.499955299E-01
     2130     5.431852884E-14    -5.271044198E+00     4.999955299E-01
     2131     3.026064121E-01    -5.002680358E+00     4.999910599E-01
     2132     5.366800754E-14    -5.045939182E+00    -1.346318339E-12
     2133     2.799600792E-01    -4.628291845E+00    -1.346318339E-12
     2134     5.572799167E-14    -5.864314855E+00     1.000000000E+00
     2135     5.475220971E-14    -5.492695628E+00     7.500000000E-01
     2136     3.293723727E-01    -5.445174435E+00     1.000000000E+00
     2137     4.835541689E-14    -6.273502692E+00     7.500000000E-01
     2138     3.787846661E-01    -6.262057026E+00     1.000000000E+00
     2139     4.803015624E-14    -5.901883465E+00     5.000000000E-01
     2140     4.759647537E-14    -5.492695628E+00     2.500000000E-01
     2141     3.339090450E-01    -5.520174570E+00     5.000000000E-01
     2142     4.835541689E-14    -6.273502692E+00     2.500000000E-01
     2143     3.787846661E-01    -6.262057026E+00     5.000000000E-01
     2144     4.803015624E-14    -5.864314855E+00    -1.346318339E-12
     2145     3.787846661E-01    -6.262057026E+00    -1.346318339E-12
     2146     3.293723727E-01    -5.445174435E+00    -1.346318339E-12
     2147     4.602543276E-01    -3.790535415E+00     8.385416667E-01
     2148     4.109321842E-01    -3.384331019E+00     1.000000000E+00
     2149     5.095764710E-01    -4.196739812E+00     1.000000000E+00
     2150     6.882814513E-01    -3.755830324E+00     1.000000000E+00
     2151     4.602543276E-01    -3.790535415E+00     3.385416667E-01
     2152     4.109321842E-01    -3.384331019E+00     8.385416667E-01
     2153     5.095764710E-01    -4.196739812E+00     8.385416667E-01
     2154     6.882814513E-01    -3.755830324E+00     6.770833333E-01
     2155     4.109321842E-01    -3.384331019E+00    -1.346318339E-12
     2156     5.095764710E-01    -4.196739812E+00    -1.346318339E-12
     2157     6.882814513E-01    -3.755830324E+00    -1.346318339E-12
     2158     3.616100408E-01    -2.978126622E+00     5.000000000E-01
     2159     5.407651134E-01    -2.950859721E+00    -1.346318339E-12
     2160     5.407651134E-01    -2.950859721E+00     1.000000000E+00
     2161     5.815036303E-01    -4.789113263E+00     7.499955299E-01
     2162     5.588986144E-01    -4.602944208E+00     5.000000000E-01
     2163     6.082207578E-01    -5.009148605E+00     1.000000000E+00
     2164     8.357977892E-01    -4.560800927E+00     1.000000000E+00
     2165     5.815036303E-01    -4.789113263E+00     2.499955299E-01
     2166     6.353541692E-01    -5.232612352E+00     4.999955299E-01
     2167     9.034065534E-01    -4.929730014E+00     4.999910599E-01
     2168     6.082207578E-01    -5.009148605E+00    -1.346318339E-12
     2169     8.357977892E-01    -4.560800927E+00    -1.346318339E-12
     2170     7.068650446E-01    -5.821557397E+00     1.000000000E+00
     2171     6.620712967E-01    -5.452647693E+00     7.500000000E-01
     2172     9.833141271E-01    -5.365771531E+00     1.000000000E+00
     2173     7.561871881E-01    -6.227761794E+00     7.500000000E-01
     2174     1.130830465E+00    -6.170742134E+00     1.000000000E+00
     2175     7.113934401E-01    -5.858852089E+00     5.000000000E-01
     2176     6.620712967E-01    -5.452647693E+00     2.500000000E-01
     2177     9.968579892E-01    -5.439677994E+00     5.000000000E-01
     2178     7.561871881E-01    -6.227761794E+00     2.500000000E-01
     2179     1.130830465E+00    -6.170742134E+00     5.000000000E-01
     2180     7.068650446E-01    -5.821557397E+00    -1.346318339E-12
     2181     1.130830465E+00    -6.170742134E+00    -1.346318339E-12
     2182     9.833141271E-01    -5.365771531E+00    -1.346318339E-12
     2183     9.137971107E-01    -3.707420616E+00     8.385416667E-01
     2184     8.158720518E-01    -3.310123034E+00     1.000000000E+00
     2185     1.011722170E+00    -4.104718197E+00     1.000000000E+00
     2186     1.135978423E+00    -3.645482931E+00     1.000000000E+00
     2187     9.137971107E-01    -3.707420616E+00     3.385416667E-01
     2188     8.158720518E-01    -3.310123034E+00     8.385416667E-01
     2189     1.011722170E+00    -4.104718197E+00     8.385416667E-01
     2190     1.135978423E+00    -3.645482931E+00     6.770833333E-01
     2191     8.158720518E-01    -3.310123034E+00    -1.346318339E-12
     2192     1.011722170E+00    -4.104718197E+00    -1.346318339E-12
     2193     1.135978423E+00    -3.645482931E+00    -1.346318339E-12
     2194     7.179469929E-01    -2.912825452E+00     5.000000000E-01
     2195     8.925091616E-01    -2.864162600E+00    -1.346318339E-12
     2196     8.925091616E-01    -2.864162600E+00     1.000000000E+00
     2197     1.154527628E+00    -4.684102719E+00     7.499955299E-01
     2198     1.109647228E+00    -4.502015779E+00     5.000000000E-01
     2199     1.207572287E+00    -4.899313360E+00     1.000000000E+00
     2200     1.379447685E+00    -4.426803263E+00     1.000000000E+00
     2201     1.154527628E+00    -4.684102719E+00     2.499955299E-01
     2202     1.261443444E+00    -5.117877234E+00     4.999955299E-01
     2203     1.491032993E+00    -4.784893105E+00     4.999910599E-01
     2204     1.207572287E+00    -4.899313360E+00    -1.346318339E-12
     2205     1.379447685E+00    -4.426803263E+00    -1.346318339E-12
     2206     1.403422405E+00    -5.693908524E+00     1.000000000E+00
     2207     1.314488103E+00    -5.333087876E+00     7.500000000E-01
     2208     1.622916947E+00    -5.208123594E+00     1.000000000E+00
     2209     1.501347464E+00    -6.091206105E+00     7.500000000E-01
     2210     1.866386209E+00    -5.989443926E+00     1.000000000E+00
     2211     1.412413162E+00    -5.730385457E+00     5.000000000E-01
     2212     1.314488103E+00    -5.333087876E+00     2.500000000E-01
     2213     1.645270499E+00    -5.279858664E+00     5.000000000E-01
     2214     1.501347464E+00    -6.091206105E+00     2.500000000E-01
     2215     1.866386209E+00    -5.989443926E+00     5.000000000E-01
     2216     1.403422405E+00    -5.693908524E+00    -1.346318339E-12
     2217     1.866386209E+00    -5.989443926E+00    -1.346318339E-12
     2218     1.622916947E+00    -5.208123594E+00    -1.346318339E-12
     2219     1.354014674E+00    -3.570243275E+00     8.385416667E-01
     2220     1.208914668E+00    -3.187646001E+00     1.000000000E+00
     2221     1.499114681E+00    -3.952840548E+00     1.000000000E+00
     2222     1.567110272E+00    -3.481976188E+00     1.000000000E+00
     2223     1.354014674E+00    -3.570243275E+00     3.385416667E-01
     2224     1.208914668E+00    -3.187646001E+00     8.385416667E-01
     2225     1.499114681E+00    -3.952840548E+00     8.385416667E-01
     2226     1.567110272E+00    -3.481976188E+00     6.770833333E-01
     2227     1.208914668E+00    -3.187646001E+00    -1.346318339E-12
     2228     1.499114681E+00    -3.952840548E+00    -1.346318339E-12
     2229     1.567110272E+00    -3.481976188E+00    -1.346318339E-12
     2230     1.063814661E+00    -2.805048728E+00     5.000000000E-01
     2231     1.231238416E+00    -2.735699538E+00    -1.346318339E-12
     2232     1.231238416E+00    -2.735699538E+00     1.000000000E+00
     2233     1.710716014E+00    -4.510787408E+00     7.499955299E-01
     2234     1.644214687E+00    -4.335437822E+00     5.000000000E-01
     2235     1.789314694E+00    -4.718035095E+00     1.000000000E+00
     2236     1.902982128E+00    -4.228252838E+00     1.000000000E+00
     2237     1.710716014E+00    -4.510787408E+00     2.499955299E-01
     2238     1.869138033E+00    -4.928511941E+00     4.999955299E-01
     2239     2.056916814E+00    -4.570281679E+00     4.999910599E-01
     2240     1.789314694E+00    -4.718035095E+00    -1.346318339E-12
     2241     1.902982128E+00    -4.228252838E+00    -1.346318339E-12
     2242     2.079514707E+00    -5.483229642E+00     1.000000000E+00
     2243     1.947736713E+00    -5.135759628E+00     7.500000000E-01
     2244     2.238853984E+00    -4.974529488E+00     1.000000000E+00
     2245     2.224614713E+00    -5.865826915E+00     7.500000000E-01
     2246     2.574725840E+00    -5.720806139E+00     1.000000000E+00
     2247     2.092836719E+00    -5.518356902E+00     5.000000000E-01
     2248     1.947736713E+00    -5.135759628E+00     2.500000000E-01
     2249     2.269691260E+00    -5.043047106E+00     5.000000000E-01
     2250     2.224614713E+00    -5.865826915E+00     2.500000000E-01
     2251     2.574725840E+00    -5.720806139E+00     5.000000000E-01
     2252     2.079514707E+00    -5.483229642E+00    -1.346318339E-12
     2253     2.574725840E+00    -5.720806139E+00    -1.346318339E-12
     2254     2.238853984E+00    -4.974529488E+00    -1.346318339E-12
     2255     1.774487655E+00    -3.381003748E+00     8.385416667E-01
     2256     1.584328585E+00    -3.018685912E+00     1.000000000E+00
     2257     1.964646724E+00    -3.743321583E+00     1.000000000E+00
     2258     1.975390124E+00    -3.267694392E+00     1.000000000E+00
     2259     1.774487655E+00    -3.381003748E+00     3.385416667E-01
     2260     1.584328585E+00    -3.018685912E+00     8.385416667E-01
     2261     1.964646724E+00    -3.743321583E+00     8.385416667E-01
     2262     1.975390124E+00    -3.267694392E+00     6.770833333E-01
     2263     1.584328585E+00    -3.018685912E+00    -1.346318339E-12
     2264     1.964646724E+00    -3.743321583E+00    -1.346318339E-12
     2265     1.975390124E+00    -3.267694392E+00    -1.346318339E-12
     2266     1.394169516E+00    -2.656368077E+00     5.000000000E-01
     2267     1.552013443E+00    -2.567343817E+00    -1.346318339E-12
     2268     1.552013443E+00    -2.567343817E+00     1.000000000E+00
     2269     2.241958307E+00    -4.271694660E+00     7.499955299E-01
     2270     2.154805793E+00    -4.105639419E+00     5.000000000E-01
     2271     2.344964863E+00    -4.467957254E+00     1.000000000E+00
     2272     2.398766806E+00    -3.968044966E+00     1.000000000E+00
     2273     2.241958307E+00    -4.271694660E+00     2.499955299E-01
     2274     2.449576380E+00    -4.667277847E+00     4.999955299E-01
     2275     2.592806156E+00    -4.289025256E+00     4.999910599E-01
     2276     2.344964863E+00    -4.467957254E+00    -1.346318339E-12
     2277     2.398766806E+00    -3.968044966E+00    -1.346318339E-12
     2278     2.725283001E+00    -5.192592925E+00     1.000000000E+00
     2279     2.552582935E+00    -4.863540441E+00     7.500000000E-01
     2280     2.822143488E+00    -4.668395541E+00     1.000000000E+00
     2281     2.915442071E+00    -5.554910760E+00     7.500000000E-01
     2282     3.245520170E+00    -5.368746115E+00     1.000000000E+00
     2283     2.742742005E+00    -5.225858276E+00     5.000000000E-01
     2284     2.552582935E+00    -4.863540441E+00     2.500000000E-01
     2285     2.861014812E+00    -4.732696565E+00     5.000000000E-01
     2286     2.915442071E+00    -5.554910760E+00     2.500000000E-01
     2287     3.245520170E+00    -5.368746115E+00     5.000000000E-01
     2288     2.725283001E+00    -5.192592925E+00    -1.346318339E-12
     2289     3.245520170E+00    -5.368746115E+00    -1.346318339E-12
     2290     2.822143488E+00    -4.668395541E+00    -1.346318339E-12
     2291     2.169084610E+00    -3.142461573E+00     8.385416667E-01
     2292     1.936639425E+00    -2.805706585E+00     1.000000000E+00
     2293     2.401529794E+00    -3.479216560E+00     1.000000000E+00
     2294     2.354864340E+00    -3.005762253E+00     1.000000000E+00
     2295     2.169084610E+00    -3.142461573E+00     3.385416667E-01
     2296     1.936639425E+00    -2.805706585E+00     8.385416667E-01
     2297     2.401529794E+00    -3.479216560E+00     8.385416667E-01
     2298     2.354864340E+00    -3.005762253E+00     6.770833333E-01
     2299     1.936639425E+00    -2.805706585E+00    -1.346318339E-12
     2300     2.401529794E+00    -3.479216560E+00    -1.346318339E-12
     2301     2.354864340E+00    -3.005762253E+00    -1.346318339E-12
     2302     1.704194240E+00    -2.468951598E+00     5.000000000E-01
     2303     1.850156618E+00    -2.361550442E+00    -1.346318339E-12
     2304     1.850156618E+00    -2.361550442E+00     1.000000000E+00
     2305     2.740507800E+00    -3.970310985E+00     7.499955299E-01
     2306     2.633974979E+00    -3.815971548E+00     5.000000000E-01
     2307     2.866420164E+00    -4.152726535E+00     1.000000000E+00
     2308     2.859572063E+00    -3.649974063E+00     1.000000000E+00
     2309     2.740507800E+00    -3.970310985E+00     2.499955299E-01
     2310     2.994294388E+00    -4.337984332E+00     4.999955299E-01
     2311     3.090886546E+00    -3.945225186E+00     4.999910599E-01
     2312     2.866420164E+00    -4.152726535E+00    -1.346318339E-12
     2313     2.859572063E+00    -3.649974063E+00    -1.346318339E-12
     2314     3.331310533E+00    -4.826236511E+00     1.000000000E+00
     2315     3.120206751E+00    -4.520399882E+00     7.500000000E-01
     2316     3.364279785E+00    -4.294185874E+00     1.000000000E+00
     2317     3.563755718E+00    -5.162991498E+00     7.500000000E-01
     2318     3.868987508E+00    -4.938397685E+00     1.000000000E+00
     2319     3.352651936E+00    -4.857154870E+00     5.000000000E-01
     2320     3.120206751E+00    -4.520399882E+00     2.500000000E-01
     2321     3.410618326E+00    -4.353332651E+00     5.000000000E-01
     2322     3.563755718E+00    -5.162991498E+00     2.500000000E-01
     2323     3.868987508E+00    -4.938397685E+00     5.000000000E-01
     2324     3.331310533E+00    -4.826236511E+00    -1.346318339E-12
     2325     3.868987508E+00    -4.938397685E+00    -1.346318339E-12
     2326     3.364279785E+00    -4.294185874E+00    -1.346318339E-12
     2327     2.532051426E+00    -2.858095232E+00     8.385416667E-01
     2328     2.260709701E+00    -2.551813738E+00     1.000000000E+00
     2329     2.803393152E+00    -3.164376725E+00     1.000000000E+00
     2330     2.699999331E+00    -2.699999331E+00     1.000000000E+00
     2331     2.532051426E+00    -2.858095232E+00     3.385416667E-01
     2332     2.260709701E+00    -2.551813738E+00     8.385416667E-01
     2333     2.803393152E+00    -3.164376725E+00     8.385416667E-01
     2334     2.699999331E+00    -2.699999331E+00     6.770833333E-01
     2335     2.260709701E+00    -2.551813738E+00    -1.346318339E-12
     2336     2.803393152E+00    -3.164376725E+00    -1.346318339E-12
     2337     2.699999331E+00    -2.699999331E+00    -1.346318339E-12
     2338     1.989367975E+00    -2.245532245E+00     5.000000000E-01
     2339     2.121320344E+00    -2.121320344E+00    -1.346318339E-12
     2340     2.121320344E+00    -2.121320344E+00     1.000000000E+00
     2341     3.199094519E+00    -3.611031235E+00     7.499955299E-01
     2342     3.074734878E+00    -3.470658219E+00     5.000000000E-01
     2343     3.346076604E+00    -3.776939713E+00     1.000000000E+00
     2344     3.278678319E+00    -3.278678319E+00     1.000000000E+00
     2345     3.199094519E+00    -3.611031235E+00     2.499955299E-01
     2346     3.495348841E+00    -3.945433237E+00     4.999955299E-01
     2347     3.543894850E+00    -3.543894850E+00     4.999910599E-01
     2348     3.346076604E+00    -3.776939713E+00    -1.346318339E-12
     2349     3.278678319E+00    -3.278678319E+00    -1.346318339E-12
     2350     3.888760056E+00    -4.389502700E+00     1.000000000E+00
     2351     3.642330926E+00    -4.111341714E+00     7.500000000E-01
     2352     3.857357307E+00    -3.857357307E+00     1.000000000E+00
     2353     4.160101782E+00    -4.695784194E+00     7.500000000E-01
     2354     4.436036295E+00    -4.436036295E+00     1.000000000E+00
     2355     3.913672652E+00    -4.417623208E+00     5.000000000E-01
     2356     3.642330926E+00    -4.111341714E+00     2.500000000E-01
     2357     3.910487344E+00    -3.910487344E+00     5.000000000E-01
     2358     4.160101782E+00    -4.695784194E+00     2.500000000E-01
     2359     4.436036295E+00    -4.436036295E+00     5.000000000E-01
     2360     3.888760056E+00    -4.389502700E+00    -1.346318339E-12
     2361     4.436036295E+00    -4.436036295E+00    -1.346318339E-12
     2362     3.857357307E+00    -3.857357307E+00    -1.346318339E-12
     2363     2.858095232E+00    -2.532051426E+00     8.385416667E-01
     2364     2.551813738E+00    -2.260709701E+00     1.000000000E+00
     2365     3.164376725E+00    -2.803393152E+00     1.000000000E+00
     2366     3.005762253E+00    -2.354864340E+00     1.000000000E+00
     2367     2.858095232E+00    -2.532051426E+00     3.385416667E-01
     2368     2.551813738E+00    -2.260709701E+00     8.385416667E-01
     2369     3.164376725E+00    -2.803393152E+00     8.385416667E-01
     2370     3.005762253E+00    -2.354864340E+00     6.770833333E-01
     2371     2.551813738E+00    -2.260709701E+00    -1.346318339E-12
     2372     3.164376725E+00    -2.803393152E+00    -1.346318339E-12
     2373     3.005762253E+00    -2.354864340E+00    -1.346318339E-12
     2374     2.245532245E+00    -1.989367975E+00     5.000000000E-01
     2375     2.361550442E+00    -1.850156618E+00    -1.346318339E-12
     2376     2.361550442E+00    -1.850156618E+00     1.000000000E+00
     2377     3.611031235E+00    -3.199094519E+00     7.499955299E-01
     2378     3.470658219E+00    -3.074734878E+00     5.000000000E-01
     2379     3.776939713E+00    -3.346076604E+00     1.000000000E+00
     2380     3.649974063E+00    -2.859572063E+00     1.000000000E+00
     2381     3.611031235E+00    -3.199094519E+00     2.499955299E-01
     2382     3.945433237E+00    -3.495348841E+00     4.999955299E-01
     2383     3.945225186E+00    -3.090886546E+00     4.999910599E-01
     2384     3.776939713E+00    -3.346076604E+00    -1.346318339E-12
     2385     3.649974063E+00    -2.859572063E+00    -1.346318339E-12
     2386     4.389502700E+00    -3.888760056E+00     1.000000000E+00
     2387     4.111341714E+00    -3.642330926E+00     7.500000000E-01
     2388     4.294185874E+00    -3.364279785E+00     1.000000000E+00
     2389     4.695784194E+00    -4.160101782E+00     7.500000000E-01
     2390     4.938397685E+00    -3.868987508E+00     1.000000000E+00
     2391     4.417623208E+00    -3.913672652E+00     5.000000000E-01
     2392     4.111341714E+00    -3.642330926E+00     2.500000000E-01
     2393     4.353332651E+00    -3.410618326E+00     5.000000000E-01
     2394     4.695784194E+00    -4.160101782E+00     2.500000000E-01
     2395     4.938397685E+00    -3.868987508E+00     5.000000000E-01
     2396     4.389502700E+00    -3.888760056E+00    -1.346318339E-12
     2397     4.938397685E+00    -3.868987508E+00    -1.346318339E-12
     2398     4.294185874E+00    -3.364279785E+00    -1.346318339E-12
     2399     3.142461573E+00    -2.169084610E+00     8.385416667E-01
     2400     2.805706585E+00    -1.936639425E+00     1.000000000E+00
     2401     3.479216560E+00    -2.401529794E+00     1.000000000E+00
     2402     3.267694392E+00    -1.975390124E+00     1.000000000E+00
     2403     3.142461573E+00    -2.169084610E+00     3.385416667E-01
     2404     2.805706585E+00    -1.936639425E+00     8.385416667E-01
     2405     3.479216560E+00    -2.401529794E+00     8.385416667E-01
     2406     3.267694392E+00    -1.975390124E+00     6.770833333E-01
     2407     2.805706585E+00    -1.936639425E+00    -1.346318339E-12
     2408     3.479216560E+00    -2.401529794E+00    -1.346318339E-12
     2409     3.267694392E+00    -1.975390124E+00    -1.346318339E-12
     2410     2.468951598E+00    -1.704194240E+00     5.000000000E-01
     2411     2.567343817E+00    -1.552013443E+00    -1.346318339E-12
     2412     2.567343817E+00    -1.552013443E+00     1.000000000E+00
     2413     3.970310985E+00    -2.740507800E+00     7.499955299E-01
     2414     3.815971548E+00    -2.633974979E+00     5.000000000E-01
     2415     4.152726535E+00    -2.866420164E+00     1.000000000E+00
     2416     3.968044966E+00    -2.398766806E+00     1.000000000E+00
     2417     3.970310985E+00    -2.740507800E+00     2.499955299E-01
     2418     4.337984332E+00    -2.994294388E+00     4.999955299E-01
     2419     4.289025256E+00    -2.592806156E+00     4.999910599E-01
     2420     4.152726535E+00    -2.866420164E+00    -1.346318339E-12
     2421     3.968044966E+00    -2.398766806E+00    -1.346318339E-12
     2422     4.826236511E+00    -3.331310533E+00     1.000000000E+00
     2423     4.520399882E+00    -3.120206751E+00     7.500000000E-01
     2424     4.668395541E+00    -2.822143488E+00     1.000000000E+00
     2425     5.162991498E+00    -3.563755718E+00     7.500000000E-01
     2426     5.368746115E+00    -3.245520170E+00     1.000000000E+00
     2427     4.857154870E+00    -3.352651936E+00     5.000000000E-01
     2428     4.520399882E+00    -3.120206751E+00     2.500000000E-01
     2429     4.732696565E+00    -2.861014812E+00     5.000000000E-01
     2430     5.162991498E+00    -3.563755718E+00     2.500000000E-01
     2431     5.368746115E+00    -3.245520170E+00     5.000000000E-01
     2432     4.826236511E+00    -3.331310533E+00    -1.346318339E-12
     2433     5.368746115E+00    -3.245520170E+00    -1.346318339E-12
     2434     4.668395541E+00    -2.822143488E+00    -1.346318339E-12
     2435     3.381003748E+00    -1.774487655E+00     8.385416667E-01
     2436     3.018685912E+00    -1.584328585E+00     1.000000000E+00
     2437     3.743321583E+00    -1.964646724E+00     1.000000000E+00
     2438     3.481976188E+00    -1.567110272E+00     1.000000000E+00
     2439     3.381003748E+00    -1.774487655E+00     3.385416667E-01
     2440     3.018685912E+00    -1.584328585E+00     8.385416667E-01
     2441     3.743321583E+00    -1.964646724E+00     8.385416667E-01
     2442     3.481976188E+00    -1.567110272E+00     6.770833333E-01
     2443     3.018685912E+00    -1.584328585E+00    -1.346318339E-12
     2444     3.743321583E+00    -1.964646724E+00    -1.346318339E-12
     2445     3.481976188E+00    -1.567110272E+00    -1.346318339E-12
     2446     2.656368077E+00    -1.394169516E+00     5.000000000E-01
     2447     2.735699538E+00    -1.231238416E+00    -1.346318339E-12
     2448     2.735699538E+00    -1.231238416E+00     1.000000000E+00
     2449     4.271694660E+00    -2.241958307E+00     7.499955299E-01
     2450     4.105639419E+00    -2.154805793E+00     5.000000000E-01
     2451     4.467957254E+00    -2.344964863E+00     1.000000000E+00
     2452     4.228252838E+00    -1.902982128E+00     1.000000000E+00
     2453     4.271694660E+00    -2.241958307E+00     2.499955299E-01
     2454     4.667277847E+00    -2.449576380E+00     4.999955299E-01
     2455     4.570281679E+00    -2.056916814E+00     4.999910599E-01
     2456     4.467957254E+00    -2.344964863E+00    -1.346318339E-12
     2457     4.228252838E+00    -1.902982128E+00    -1.346318339E-12
     2458     5.192592925E+00    -2.725283001E+00     1.000000000E+00
     2459     4.863540441E+00    -2.552582935E+00     7.500000000E-01
     2460     4.974529488E+00    -2.238853984E+00     1.000000000E+00
     2461     5.554910760E+00    -2.915442071E+00     7.500000000E-01
     2462     5.720806139E+00    -2.574725840E+00     1.000000000E+00
     2463     5.225858276E+00    -2.742742005E+00     5.000000000E-01
     2464     4.863540441E+00    -2.552582935E+00     2.500000000E-01
     2465     5.043047106E+00    -2.269691260E+00     5.000000000E-01
     2466     5.554910760E+00    -2.915442071E+00     2.500000000E-01
     2467     5.720806139E+00    -2.574725840E+00     5.000000000E-01
     2468     5.192592925E+00    -2.725283001E+00    -1.346318339E-12
     2469     5.720806139E+00    -2.574725840E+00    -1.346318339E-12
     2470     4.974529488E+00    -2.238853984E+00    -1.346318339E-12
     2471     3.570243275E+00    -1.354014674E+00     8.385416667E-01
     2472     3.187646001E+00    -1.208914668E+00     1.000000000E+00
     2473     3.952840548E+00    -1.499114681E+00     1.000000000E+00
     2474     3.645482931E+00    -1.135978423E+00     1.000000000E+00
     2475     3.570243275E+00    -1.354014674E+00     3.385416667E-01
     2476     3.187646001E+00    -1.208914668E+00     8.385416667E-01
     2477     3.952840548E+00    -1.499114681E+00     8.385416667E-01
     2478     3.645482931E+00    -1.135978423E+00     6.770833333E-01
     2479     3.187646001E+00    -1.208914668E+00    -1.346318339E-12
     2480     3.952840548E+00    -1.499114681E+00    -1.346318339E-12
     2481     3.645482931E+00    -1.135978423E+00    -1.346318339E-12
     2482     2.805048728E+00    -1.063814661E+00     5.000000000E-01
     2483     2.864162600E+00    -8.925091616E-01    -1.346318339E-12
     2484     2.864162600E+00    -8.925091616E-01     1.000000000E+00
     2485     4.510787408E+00    -1.710716014E+00     7.499955299E-01
     2486     4.335437822E+00    -1.644214687E+00     5.000000000E-01
     2487     4.718035095E+00    -1.789314694E+00     1.000000000E+00
     2488     4.426803263E+00    -1.379447685E+00     1.000000000E+00
     2489     4.510787408E+00    -1.710716014E+00     2.499955299E-01
     2490     4.928511941E+00    -1.869138033E+00     4.999955299E-01
     2491     4.784893105E+00    -1.491032993E+00     4.999910599E-01
     2492     4.718035095E+00    -1.789314694E+00    -1.346318339E-12
     2493     4.426803263E+00    -1.379447685E+00    -1.346318339E-12
     2494     5.483229642E+00    -2.079514707E+00     1.000000000E+00
     2495     5.135759628E+00    -1.947736713E+00     7.500000000E-01
     2496     5.208123594E+00    -1.622916947E+00     1.000000000E+00
     2497     5.865826915E+00    -2.224614713E+00     7.500000000E-01
     2498     5.989443926E+00    -1.866386209E+00     1.000000000E+00
     2499     5.518356902E+00    -2.092836719E+00     5.000000000E-01
     2500     5.135759628E+00    -1.947736713E+00     2.500000000E-01
     2501     5.279858664E+00    -1.645270499E+00     5.000000000E-01
     2502     5.865826915E+00    -2.224614713E+00     2.500000000E-01
     2503     5.989443926E+00    -1.866386209E+00     5.000000000E-01
     2504     5.483229642E+00    -2.079514707E+00    -1.346318339E-12
     2505     5.989443926E+00    -1.866386209E+00    -1.346318339E-12
     2506     5.208123594E+00    -1.622916947E+00    -1.346318339E-12
     2507     3.707420616E+00    -9.137971107E-01     8.385416667E-01
     2508     3.310123034E+00    -8.158720518E-01     1.000000000E+00
     2509     4.104718197E+00    -1.011722170E+00     1.000000000E+00
     2510     3.755830324E+00    -6.882814513E-01     1.000000000E+00
     2511     3.707420616E+00    -9.137971107E-01     3.385416667E-01
     2512     3.310123034E+00    -8.158720518E-01     8.385416667E-01
     2513     4.104718197E+00    -1.011722170E+00     8.385416667E-01
     2514     3.755830324E+00    -6.882814513E-01     6.770833333E-01
     2515     3.310123034E+00    -8.158720518E-01    -1.346318339E-12
     2516     4.104718197E+00    -1.011722170E+00    -1.346318339E-12
     2517     3.755830324E+00    -6.882814513E-01    -1.346318339E-12
     2518     2.912825452E+00    -7.179469929E-01     5.000000000E-01
     2519     2.950859721E+00    -5.407651134E-01    -1.346318339E-12
     2520     2.950859721E+00    -5.407651134E-01     1.000000000E+00
     2521     4.684102719E+00    -1.154527628E+00     7.499955299E-01
     2522     4.502015779E+00    -1.109647228E+00     5.000000000E-01
     2523     4.899313360E+00    -1.207572287E+00     1.000000000E+00
     2524     4.560800927E+00    -8.357977892E-01     1.000000000E+00
     2525     4.684102719E+00    -1.154527628E+00     2.499955299E-01
     2526     5.117877234E+00    -1.261443444E+00     4.999955299E-01
     2527     4.929730014E+00    -9.034065534E-01     4.999910599E-01
     2528     4.899313360E+00    -1.207572287E+00    -1.346318339E-12
     2529     4.560800927E+00    -8.357977892E-01    -1.346318339E-12
     2530     5.693908524E+00    -1.403422405E+00     1.000000000E+00
     2531     5.333087876E+00    -1.314488103E+00     7.500000000E-01
     2532     5.365771531E+00    -9.833141271E-01     1.000000000E+00
     2533     6.091206105E+00    -1.501347464E+00     7.500000000E-01
     2534     6.170742134E+00    -1.130830465E+00     1.000000000E+00
     2535     5.730385457E+00    -1.412413162E+00     5.000000000E-01
     2536     5.333087876E+00    -1.314488103E+00     2.500000000E-01
     2537     5.439677994E+00    -9.968579892E-01     5.000000000E-01
     2538     6.091206105E+00    -1.501347464E+00     2.500000000E-01
     2539     6.170742134E+00    -1.130830465E+00     5.000000000E-01
     2540     5.693908524E+00    -1.403422405E+00    -1.346318339E-12
     2541     6.170742134E+00    -1.130830465E+00    -1.346318339E-12
     2542     5.365771531E+00    -9.833141271E-01    -1.346318339E-12
     2543     3.790535415E+00    -4.602543276E-01     8.385416667E-01
     2544     3.384331019E+00    -4.109321842E-01     1.000000000E+00
     2545     4.196739812E+00    -5.095764710E-01     1.000000000E+00
     2546     3.811409254E+00    -2.305477857E-01     1.000000000E+00
     2547     3.790535415E+00    -4.602543276E-01     3.385416667E-01
     2548     3.384331019E+00    -4.109321842E-01     8.385416667E-01
     2549     4.196739812E+00    -5.095764710E-01     8.385416667E-01
     2550     3.811409254E+00    -2.305477857E-01     6.770833333E-01
     2551     3.384331019E+00    -4.109321842E-01    -1.346318339E-12
     2552     4.196739812E+00    -5.095764710E-01    -1.346318339E-12
     2553     3.811409254E+00    -2.305477857E-01    -1.346318339E-12
     2554     2.978126622E+00    -3.616100408E-01     5.000000000E-01
     2555     2.994526663E+00    -1.811354923E-01    -1.346318339E-12
     2556     2.994526663E+00    -1.811354923E-01     1.000000000E+00
     2557     4.789113263E+00    -5.815036303E-01     7.499955299E-01
     2558     4.602944208E+00    -5.588986144E-01     5.000000000E-01
     2559     5.009148605E+00    -6.082207578E-01     1.000000000E+00
     2560     4.628291845E+00    -2.799600792E-01     1.000000000E+00
     2561     4.789113263E+00    -5.815036303E-01     2.499955299E-01
     2562     5.232612352E+00    -6.353541692E-01     4.999955299E-01
     2563     5.002680358E+00    -3.026064121E-01     4.999910599E-01
     2564     5.009148605E+00    -6.082207578E-01    -1.346318339E-12
     2565     4.628291845E+00    -2.799600792E-01    -1.346318339E-12
     2566     5.821557397E+00    -7.068650446E-01     1.000000000E+00
     2567     5.452647693E+00    -6.620712967E-01     7.500000000E-01
     2568     5.445174435E+00    -3.293723727E-01     1.000000000E+00
     2569     6.227761794E+00    -7.561871881E-01     7.500000000E-01
     2570     6.262057026E+00    -3.787846661E-01     1.000000000E+00
     2571     5.858852089E+00    -7.113934401E-01     5.000000000E-01
     2572     5.452647693E+00    -6.620712967E-01     2.500000000E-01
     2573     5.520174570E+00    -3.339090450E-01     5.000000000E-01
     2574     6.227761794E+00    -7.561871881E-01     2.500000000E-01
     2575     6.262057026E+00    -3.787846661E-01     5.000000000E-01
     2576     5.821557397E+00    -7.068650446E-01    -1.346318339E-12
     2577     6.262057026E+00    -3.787846661E-01    -1.346318339E-12
     2578     5.445174435E+00    -3.293723727E-01    -1.346318339E-12
     2579     4.227563509E+00    -2.935498522E-14     8.385416667E-01
     2580     3.818375673E+00    -2.651580896E-14     8.385416667E-01
     2581     3.818375673E+00    -2.650358305E-14     3.385416667E-01
     2582     3.409187836E+00    -2.367663269E-14     8.385416667E-01
     2583     5.271044198E+00    -3.658723343E-14     4.999955299E-01
     2584     4.824287753E+00    -3.349335756E-14     7.499955299E-01
     2585     4.824287753E+00    -3.348126637E-14     2.499955299E-01
     2586     5.901883465E+00    -4.096369896E-14     5.000000000E-01
     2587     5.492695628E+00    -3.813109959E-14     7.500000000E-01
     2588     5.492695628E+00    -3.811914312E-14     2.500000000E-01
     2589     6.273502692E+00    -4.354823620E-14     7.500000000E-01
     2590     6.273502692E+00    -4.353641445E-14     2.500000000E-01
     2591     5.045939182E+00    -3.503728430E-14     1.000000000E+00
     2592     5.864314855E+00    -4.071563683E-14     1.000000000E+00
     2593     4.227563509E+00    -2.935893177E-14     1.000000000E+00
     2594     4.636751346E+00    -3.218601684E-14     5.000000000E-01
     2595     3.409187836E+00    -2.368057924E-14     1.000000000E+00
     2596     5.045939182E+00    -3.501323664E-14     0.000000000E+00
     2597     5.864314855E+00    -4.069185860E-14     0.000000000E+00
     2598     4.227563509E+00    -2.933461467E-14     0.000000000E+00
     2599     3.409187836E+00    -2.365599270E-14     0.000000000E+00
     2600     3.000000000E+00    -2.082904234E-14     5.000000000E-01
-1
eblock,19,solid,,468
(19i9)
        1        1        1        1        0        0        0        0       20        0        1        2        3        8        6      715      724      723      720
      734      740      749      736     2581     2598     2594     2579      738      742      759      752
        1        1        1        1        0        0        0        0       20        0        2        2        5        4        3      715      726      728      724
      735      743      739      734     2582     2600     2599     2581      738      747      745      742
        1        1        1        1        0        0        0        0       20        0        3        6        7       11        9      720      716      717      719
      748      754      761      750     2584     2583     2587     2591      752      756      770      763
        1        1        1        1        0        0        0        0       20        0        4        7        8       14       11      716      723      722      717
      753      757      768      754     2585     2596     2588     2583      756      759      778      770
        1        1        1        1        0        0        0        0       20        0        5        9       11       12       10      719      717      718      725
      761      767      764      760     2587     2586     2589     2592      763      770      773      766
        1        1        1        1        0        0        0        0       20        0        6       11       14       13       12      717      722      727      718
      768      774      771      767     2588     2597     2590     2586      770      778      776      773
        1        1        1        1        0        0        0        0       20        0        7        2        6        8        3       16       20       22       17
      736      749      740      734      785      794      788      783      737      751      758      741
        1        1        1        1        0        0        0        0       20        0        8        2        3        4        5       16       17       18       19
      734      739      743      735      783      787      790      784      737      741      744      746
        1        1        1        1        0        0        0        0       20        0        9        6        9       11        7       20       23       25       21
      750      761      754      748      795      803      798      793      751      762      769      755
        1        1        1        1        0        0        0        0       20        0       10        7       11       14        8       21       25       28       22
      754      768      757      753      798      808      800      797      755      769      777      758
        1        1        1        1        0        0        0        0       20        0       11        9       10       12       11       23       24       26       25
      760      764      767      761      802      805      807      803      762      765      772      769
        1        1        1        1        0        0        0        0       20        0       12       11       12       13       14       25       26       27       28
      767      771      774      768      807      810      812      808      769      772      775      777
        1        1        1        1        0        0        0        0       20        0       13       16       20       22       17       30       34       36       31
      785      794      788      783      821      830      824      819      786      796      801      789
        1        1        1        1        0        0        0        0       20        0       14       16       17       18       19       30       31       32       33
      783      787      790      784      819      823      826      820      786      789      791      792
        1        1        1        1        0        0        0        0       20        0       15       20       23       25       21       34       37       39       35
      795      803      798      793      831      839      834      829      796      804      809      799
        1        1        1        1        0        0        0        0       20        0       16       21       25       28       22       35       39       42       36
      798      808      800      797      834      844      836      833      799      809      814      801
        1        1        1        1        0        0        0        0       20        0       17       23       24       26       25       37       38       40       39
      802      805      807      803      838      841      843      839      804      806      811      809
        1        1        1        1        0        0        0        0       20        0       18       25       26       27       28       39       40       41       42
      807      810      812      808      843      846      848      844      809      811      813      814
        1        1        1        1        0        0        0        0       20        0       19       30       34       36       31       44       48       50       45
      821      830      824      819      857      866      860      855      822      832      837      825
        1        1        1        1        0        0        0        0       20        0       20       30       31       32       33       44       45       46       47
      819      823      826      820      855      859      862      856      822      825      827      828
        1        1        1        1        0        0        0        0       20        0       21       34       37       39       35       48       51       53       49
      831      839      834      829      867      875      870      865      832      840      845      835
        1        1        1        1        0        0        0        0       20        0       22       35       39       42       36       49       53       56       50
      834      844      836      833      870      880      872      869      835      845      850      837
        1        1        1        1        0        0        0        0       20        0       23       37       38       40       39       51       52       54       53
      838      841      843      839      874      877      879      875      840      842      847      845
        1        1        1        1        0        0        0        0       20        0       24       39       40       41       42       53       54       55       56
      843      846      848      844      879      882      884      880      845      847      849      850
        1        1        1        1        0        0        0        0       20        0       25       44       48       50       45       58       62       64       59
      857      866      860      855      893      902      896      891      858      868      873      861
        1        1        1        1        0        0        0        0       20        0       26       44       45       46       47       58       59       60       61
      855      859      862      856      891      895      898      892      858      861      863      864
        1        1        1        1        0        0        0        0       20        0       27       48       51       53       49       62       65       67       63
      867      875      870      865      903      911      906      901      868      876      881      871
        1        1        1        1        0        0        0        0       20        0       28       49       53       56       50       63       67       70       64
      870      880      872      869      906      916      908      905      871      881      886      873
        1        1        1        1        0        0        0        0       20        0       29       51       52       54       53       65       66       68       67
      874      877      879      875      910      913      915      911      876      878      883      881
        1        1        1        1        0        0        0        0       20        0       30       53       54       55       56       67       68       69       70
      879      882      884      880      915      918      920      916      881      883      885      886
        1        1        1        1        0        0        0        0       20        0       31       58       62       64       59       72       76       78       73
      893      902      896      891      929      938      932      927      894      904      909      897
        1        1        1        1        0        0        0        0       20        0       32       58       59       60       61       72       73       74       75
      891      895      898      892      927      931      934      928      894      897      899      900
        1        1        1        1        0        0        0        0       20        0       33       62       65       67       63       76       79       81       77
      903      911      906      901      939      947      942      937      904      912      917      907
        1        1        1        1        0        0        0        0       20        0       34       63       67       70       64       77       81       84       78
      906      916      908      905      942      952      944      941      907      917      922      909
        1        1        1        1        0        0        0        0       20        0       35       65       66       68       67       79       80       82       81
      910      913      915      911      946      949      951      947      912      914      919      917
        1        1        1        1        0        0        0        0       20        0       36       67       68       69       70       81       82       83       84
      915      918      920      916      951      954      956      952      917      919      921      922
        1        1        1        1        0        0        0        0       20        0       37       72       76       78       73       86       90       92       87
      929      938      932      927      965      974      968      963      930      940      945      933
        1        1        1        1        0        0        0        0       20        0       38       72       73       74       75       86       87       88       89
      927      931      934      928      963      967      970      964      930      933      935      936
        1        1        1        1        0        0        0        0       20        0       39       76       79       81       77       90       93       95       91
      939      947      942      937      975      983      978      973      940      948      953      943
        1        1        1        1        0        0        0        0       20        0       40       77       81       84       78       91       95       98       92
      942      952      944      941      978      988      980      977      943      953      958      945
        1        1        1        1        0        0        0        0       20        0       41       79       80       82       81       93       94       96       95
      946      949      951      947      982      985      987      983      948      950      955      953
        1        1        1        1        0        0        0        0       20        0       42       81       82       83       84       95       96       97       98
      951      954      956      952      987      990      992      988      953      955      957      958
        1        1        1        1        0        0        0        0       20        0       43       86       90       92       87      100      104      106      101
      965      974      968      963     1001     1010     1004      999      966      976      981      969
        1        1        1        1        0        0        0        0       20        0       44       86       87       88       89      100      101      102      103
      963      967      970      964      999     1003     1006     1000      966      969      971      972
        1        1        1        1        0        0        0        0       20        0       45       90       93       95       91      104      107      109      105
      975      983      978      973     1011     1019     1014     1009      976      984      989      979
        1        1        1        1        0        0        0        0       20        0       46       91       95       98       92      105      109      112      106
      978      988      980      977     1014     1024     1016     1013      979      989      994      981
        1        1        1        1        0        0        0        0       20        0       47       93       94       96       95      107      108      110      109
      982      985      987      983     1018     1021     1023     1019      984      986      991      989
        1        1        1        1        0        0        0        0       20        0       48       95       96       97       98      109      110      111      112
      987      990      992      988     1023     1026     1028     1024      989      991      993      994
        1        1        1        1        0        0        0        0       20        0       49      100      104      106      101      114      118      120      115
     1001     1010     1004      999     1037     1046     1040     1035     1002     1012     1017     1005
        1        1        1        1        0        0        0        0       20        0       50      100      101      102      103      114      115      116      117
      999     1003     1006     1000     1035     1039     1042     1036     1002     1005     1007     1008
        1        1        1        1        0        0        0        0       20        0       51      104      107      109      105      118      121      123      119
     1011     1019     1014     1009     1047     1055     1050     1045     1012     1020     1025     1015
        1        1        1        1        0        0        0        0       20        0       52      105      109      112      106      119      123      126      120
     1014     1024     1016     1013     1050     1060     1052     1049     1015     1025     1030     1017
        1        1        1        1        0        0        0        0       20        0       53      107      108      110      109      121      122      124      123
     1018     1021     1023     1019     1054     1057     1059     1055     1020     1022     1027     1025
        1        1        1        1        0        0        0        0       20        0       54      109      110      111      112      123      124      125      126
     1023     1026     1028     1024     1059     1062     1064     1060     1025     1027     1029     1030
        1        1        1        1        0        0        0        0       20        0       55      114      118      120      115      128      132      134      129
     1037     1046     1040     1035     1073     1082     1076     1071     1038     1048     1053     1041
        1        1        1        1        0        0        0        0       20        0       56      114      115      116      117      128      129      130      131
     1035     1039     1042     1036     1071     1075     1078     1072     1038     1041     1043     1044
        1        1        1        1        0        0        0        0       20        0       57      118      121      123      119      132      135      137      133
     1047     1055     1050     1045     1083     1091     1086     1081     1048     1056     1061     1051
        1        1        1        1        0        0        0        0       20        0       58      119      123      126      120      133      137      140      134
     1050     1060     1052     1049     1086     1096     1088     1085     1051     1061     1066     1053
        1        1        1        1        0        0        0        0       20        0       59      121      122      124      123      135      136      138      137
     1054     1057     1059     1055     1090     1093     1095     1091     1056     1058     1063     1061
        1        1        1        1        0        0        0        0       20        0       60      123      124      125      126      137      138      139      140
     1059     1062     1064     1060     1095     1098     1100     1096     1061     1063     1065     1066
        1        1        1        1        0        0        0        0       20        0       61      128      132      134      129      142      146      148      143
     1073     1082     1076     1071     1109     1118     1112     1107     1074     1084     1089     1077
        1        1        1        1        0        0        0        0       20        0       62      128      129      130      131      142      143      144      145
     1071     1075     1078     1072     1107     1111     1114     1108     1074     1077     1079     1080
        1        1        1        1        0        0        0        0       20        0       63      132      135      137      133      146      149      151      147
     1083     1091     1086     1081     1119     1127     1122     1117     1084     1092     1097     1087
        1        1        1        1        0        0        0        0       20        0       64      133      137      140      134      147      151      154      148
     1086     1096     1088     1085     1122     1132     1124     1121     1087     1097     1102     1089
        1        1        1        1        0        0        0        0       20        0       65      135      136      138      137      149      150      152      151
     1090     1093     1095     1091     1126     1129     1131     1127     1092     1094     1099     1097
        1        1        1        1        0        0        0        0       20        0       66      137      138      139      140      151      152      153      154
     1095     1098     1100     1096     1131     1134     1136     1132     1097     1099     1101     1102
        1        1        1        1        0        0        0        0       20        0       67      142      146      148      143      156      160      162      157
     1109     1118     1112     1107     1145     1154     1148     1143     1110     1120     1125     1113
        1        1        1        1        0        0        0        0       20        0       68      142      143      144      145      156      157      158      159
     1107     1111     1114     1108     1143     1147     1150     1144     1110     1113     1115     1116
        1        1        1        1        0        0        0        0       20        0       69      146      149      151      147      160      163      165      161
     1119     1127     1122     1117     1155     1163     1158     1153     1120     1128     1133     1123
        1        1        1        1        0        0        0        0       20        0       70      147      151      154      148      161      165      168      162
     1122     1132     1124     1121     1158     1168     1160     1157     1123     1133     1138     1125
        1        1        1        1        0        0        0        0       20        0       71      149      150      152      151      163      164      166      165
     1126     1129     1131     1127     1162     1165     1167     1163     1128     1130     1135     1133
        1        1        1        1        0        0        0        0       20        0       72      151      152      153      154      165      166      167      168
     1131     1134     1136     1132     1167     1170     1172     1168     1133     1135     1137     1138
        1        1        1        1        0        0        0        0       20        0       73      156      160      162      157      170      174      176      171
     1145     1154     1148     1143     1181     1190     1184     1179     1146     1156     1161     1149
        1        1        1        1        0        0        0        0       20        0       74      156      157      158      159      170      171      172      173
     1143     1147     1150     1144     1179     1183     1186     1180     1146     1149     1151     1152
        1        1        1        1        0        0        0        0       20        0       75      160      163      165      161      174      177      179      175
     1155     1163     1158     1153     1191     1199     1194     1189     1156     1164     1169     1159
        1        1        1        1        0        0        0        0       20        0       76      161      165      168      162      175      179      182      176
     1158     1168     1160     1157     1194     1204     1196     1193     1159     1169     1174     1161
        1        1        1        1        0        0        0        0       20        0       77      163      164      166      165      177      178      180      179
     1162     1165     1167     1163     1198     1201     1203     1199     1164     1166     1171     1169
        1        1        1        1        0        0        0        0       20        0       78      165      166      167      168      179      180      181      182
     1167     1170     1172     1168     1203     1206     1208     1204     1169     1171     1173     1174
        1        1        1        1        0        0        0        0       20        0       79      170      174      176      171      184      188      190      185
     1181     1190     1184     1179     1217     1226     1220     1215     1182     1192     1197     1185
        1        1        1        1        0        0        0        0       20        0       80      170      171      172      173      184      185      186      187
     1179     1183     1186     1180     1215     1219     1222     1216     1182     1185     1187     1188
        1        1        1        1        0        0        0        0       20        0       81      174      177      179      175      188      191      193      189
     1191     1199     1194     1189     1227     1235     1230     1225     1192     1200     1205     1195
        1        1        1        1        0        0        0        0       20        0       82      175      179      182      176      189      193      196      190
     1194     1204     1196     1193     1230     1240     1232     1229     1195     1205     1210     1197
        1        1        1        1        0        0        0        0       20        0       83      177      178      180      179      191      192      194      193
     1198     1201     1203     1199     1234     1237     1239     1235     1200     1202     1207     1205
        1        1        1        1        0        0        0        0       20        0       84      179      180      181      182      193      194      195      196
     1203     1206     1208     1204     1239     1242     1244     1240     1205     1207     1209     1210
        1        1        1        1        0        0        0        0       20        0       85      184      188      190      185      198      202      204      199
     1217     1226     1220     1215     1253     1262     1256     1251     1218     1228     1233     1221
        1        1        1        1        0        0        0        0       20        0       86      184      185      186      187      198      199      200      201
     1215     1219     1222     1216     1251     1255     1258     1252     1218     1221     1223     1224
        1        1        1        1        0        0        0        0       20        0       87      188      191      193      189      202      205      207      203
     1227     1235     1230     1225     1263     1271     1266     1261     1228     1236     1241     1231
        1        1        1        1        0        0        0        0       20        0       88      189      193      196      190      203      207      210      204
     1230     1240     1232     1229     1266     1276     1268     1265     1231     1241     1246     1233
        1        1        1        1        0        0        0        0       20        0       89      191      192      194      193      205      206      208      207
     1234     1237     1239     1235     1270     1273     1275     1271     1236     1238     1243     1241
        1        1        1        1        0        0        0        0       20        0       90      193      194      195      196      207      208      209      210
     1239     1242     1244     1240     1275     1278     1280     1276     1241     1243     1245     1246
        1        1        1        1        0        0        0        0       20        0       91      198      202      204      199      212      216      218      213
     1253     1262     1256     1251     1289     1298     1292     1287     1254     1264     1269     1257
        1        1        1        1        0        0        0        0       20        0       92      198      199      200      201      212      213      214      215
     1251     1255     1258     1252     1287     1291     1294     1288     1254     1257     1259     1260
        1        1        1        1        0        0        0        0       20        0       93      202      205      207      203      216      219      221      217
     1263     1271     1266     1261     1299     1307     1302     1297     1264     1272     1277     1267
        1        1        1        1        0        0        0        0       20        0       94      203      207      210      204      217      221      224      218
     1266     1276     1268     1265     1302     1312     1304     1301     1267     1277     1282     1269
        1        1        1        1        0        0        0        0       20        0       95      205      206      208      207      219      220      222      221
     1270     1273     1275     1271     1306     1309     1311     1307     1272     1274     1279     1277
        1        1        1        1        0        0        0        0       20        0       96      207      208      209      210      221      222      223      224
     1275     1278     1280     1276     1311     1314     1316     1312     1277     1279     1281     1282
        1        1        1        1        0        0        0        0       20        0       97      212      216      218      213      226      230      232      227
     1289     1298     1292     1287     1325     1334     1328     1323     1290     1300     1305     1293
        1        1        1        1        0        0        0        0       20        0       98      212      213      214      215      226      227      228      229
     1287     1291     1294     1288     1323     1327     1330     1324     1290     1293     1295     1296
        1        1        1        1        0        0        0        0       20        0       99      216      219      221      217      230      233      235      231
     1299     1307     1302     1297     1335     1343     1338     1333     1300     1308     1313     1303
        1        1        1        1        0        0        0        0       20        0      100      217      221      224      218      231      235      238      232
     1302     1312     1304     1301     1338     1348     1340     1337     1303     1313     1318     1305
        1        1        1        1        0        0        0        0       20        0      101      219      220      222      221      233      234      236      235
     1306     1309     1311     1307     1342     1345     1347     1343     1308     1310     1315     1313
        1        1        1        1        0        0        0        0       20        0      102      221      222      223      224      235      236      237      238
     1311     1314     1316     1312     1347     1350     1352     1348     1313     1315     1317     1318
        1        1        1        1        0        0        0        0       20        0      103      226      230      232      227      240      244      246      241
     1325     1334     1328     1323     1361     1370     1364     1359     1326     1336     1341     1329
        1        1        1        1        0        0        0        0       20        0      104      226      227      228      229      240      241      242      243
     1323     1327     1330     1324     1359     1363     1366     1360     1326     1329     1331     1332
        1        1        1        1        0        0        0        0       20        0      105      230      233      235      231      244      247      249      245
     1335     1343     1338     1333     1371     1379     1374     1369     1336     1344     1349     1339
        1        1        1        1        0        0        0        0       20        0      106      231      235      238      232      245      249      252      246
     1338     1348     1340     1337     1374     1384     1376     1373     1339     1349     1354     1341
        1        1        1        1        0        0        0        0       20        0      107      233      234      236      235      247      248      250      249
     1342     1345     1347     1343     1378     1381     1383     1379     1344     1346     1351     1349
        1        1        1        1        0        0        0        0       20        0      108      235      236      237      238      249      250      251      252
     1347     1350     1352     1348     1383     1386     1388     1384     1349     1351     1353     1354
        1        1        1        1        0        0        0        0       20        0      109      240      244      246      241      254      258      260      255
     1361     1370     1364     1359     1397     1406     1400     1395     1362     1372     1377     1365
        1        1        1        1        0        0        0        0       20        0      110      240      241      242      243      254      255      256      257
     1359     1363     1366     1360     1395     1399     1402     1396     1362     1365     1367     1368
        1        1        1        1        0        0        0        0       20        0      111      244      247      249      245      258      261      263      259
     1371     1379     1374     1369     1407     1415     1410     1405     1372     1380     1385     1375
        1        1        1        1        0        0        0        0       20        0      112      245      249      252      246      259      263      266      260
     1374     1384     1376     1373     1410     1420     1412     1409     1375     1385     1390     1377
        1        1        1        1        0        0        0        0       20        0      113      247      248      250      249      261      262      264      263
     1378     1381     1383     1379     1414     1417     1419     1415     1380     1382     1387     1385
        1        1        1        1        0        0        0        0       20        0      114      249      250      251      252      263      264      265      266
     1383     1386     1388     1384     1419     1422     1424     1420     1385     1387     1389     1390
        1        1        1        1        0        0        0        0       20        0      115      254      258      260      255      268      272      274      269
     1397     1406     1400     1395     1433     1442     1436     1431     1398     1408     1413     1401
        1        1        1        1        0        0        0        0       20        0      116      254      255      256      257      268      269      270      271
     1395     1399     1402     1396     1431     1435     1438     1432     1398     1401     1403     1404
        1        1        1        1        0        0        0        0       20        0      117      258      261      263      259      272      275      277      273
     1407     1415     1410     1405     1443     1451     1446     1441     1408     1416     1421     1411
        1        1        1        1        0        0        0        0       20        0      118      259      263      266      260      273      277      280      274
     1410     1420     1412     1409     1446     1456     1448     1445     1411     1421     1426     1413
        1        1        1        1        0        0        0        0       20        0      119      261      262      264      263      275      276      278      277
     1414     1417     1419     1415     1450     1453     1455     1451     1416     1418     1423     1421
        1        1        1        1        0        0        0        0       20        0      120      263      264      265      266      277      278      279      280
     1419     1422     1424     1420     1455     1458     1460     1456     1421     1423     1425     1426
        1        1        1        1        0        0        0        0       20        0      121      268      272      274      269      282      286      288      283
     1433     1442     1436     1431     1469     1478     1472     1467     1434     1444     1449     1437
        1        1        1        1        0        0        0        0       20        0      122      268      269      270      271      282      283      284      285
     1431     1435     1438     1432     1467     1471     1474     1468     1434     1437     1439     1440
        1        1        1        1        0        0        0        0       20        0      123      272      275      277      273      286      289      291      287
     1443     1451     1446     1441     1479     1487     1482     1477     1444     1452     1457     1447
        1        1        1        1        0        0        0        0       20        0      124      273      277      280      274      287      291      294      288
     1446     1456     1448     1445     1482     1492     1484     1481     1447     1457     1462     1449
        1        1        1        1        0        0        0        0       20        0      125      275      276      278      277      289      290      292      291
     1450     1453     1455     1451     1486     1489     1491     1487     1452     1454     1459     1457
        1        1        1        1        0        0        0        0       20        0      126      277      278      279      280      291      292      293      294
     1455     1458     1460     1456     1491     1494     1496     1492     1457     1459     1461     1462
        1        1        1        1        0        0        0        0       20        0      127      282      286      288      283      296      300      302      297
     1469     1478     1472     1467     1505     1514     1508     1503     1470     1480     1485     1473
        1        1        1        1        0        0        0        0       20        0      128      282      283      284      285      296      297      298      299
     1467     1471     1474     1468     1503     1507     1510     1504     1470     1473     1475     1476
        1        1        1        1        0        0        0        0       20        0      129      286      289      291      287      300      303      305      301
     1479     1487     1482     1477     1515     1523     1518     1513     1480     1488     1493     1483
        1        1        1        1        0        0        0        0       20        0      130      287      291      294      288      301      305      308      302
     1482     1492     1484     1481     1518     1528     1520     1517     1483     1493     1498     1485
        1        1        1        1        0        0        0        0       20        0      131      289      290      292      291      303      304      306      305
     1486     1489     1491     1487     1522     1525     1527     1523     1488     1490     1495     1493
        1        1        1        1        0        0        0        0       20        0      132      291      292      293      294      305      306      307      308
     1491     1494     1496     1492     1527     1530     1532     1528     1493     1495     1497     1498
        1        1        1        1        0        0        0        0       20        0      133      296      300      302      297      310      314      316      311
     1505     1514     1508     1503     1541     1550     1544     1539     1506     1516     1521     1509
        1        1        1        1        0        0        0        0       20        0      134      296      297      298      299      310      311      312      313
     1503     1507     1510     1504     1539     1543     1546     1540     1506     1509     1511     1512
        1        1        1        1        0        0        0        0       20        0      135      300      303      305      301      314      317      319      315
     1515     1523     1518     1513     1551     1559     1554     1549     1516     1524     1529     1519
        1        1        1        1        0        0        0        0       20        0      136      301      305      308      302      315      319      322      316
     1518     1528     1520     1517     1554     1564     1556     1553     1519     1529     1534     1521
        1        1        1        1        0        0        0        0       20        0      137      303      304      306      305      317      318      320      319
     1522     1525     1527     1523     1558     1561     1563     1559     1524     1526     1531     1529
        1        1        1        1        0        0        0        0       20        0      138      305      306      307      308      319      320      321      322
     1527     1530     1532     1528     1563     1566     1568     1564     1529     1531     1533     1534
        1        1        1        1        0        0        0        0       20        0      139      310      314      316      311      324      328      330      325
     1541     1550     1544     1539     1577     1586     1580     1575     1542     1552     1557     1545
        1        1        1        1        0        0        0        0       20        0      140      310      311      312      313      324      325      326      327
     1539     1543     1546     1540     1575     1579     1582     1576     1542     1545     1547     1548
        1        1        1        1        0        0        0        0       20        0      141      314      317      319      315      328      331      333      329
     1551     1559     1554     1549     1587     1595     1590     1585     1552     1560     1565     1555
        1        1        1        1        0        0        0        0       20        0      142      315      319      322      316      329      333      336      330
     1554     1564     1556     1553     1590     1600     1592     1589     1555     1565     1570     1557
        1        1        1        1        0        0        0        0       20        0      143      317      318      320      319      331      332      334      333
     1558     1561     1563     1559     1594     1597     1599     1595     1560     1562     1567     1565
        1        1        1        1        0        0        0        0       20        0      144      319      320      321      322      333      334      335      336
     1563     1566     1568     1564     1599     1602     1604     1600     1565     1567     1569     1570
        1        1        1        1        0        0        0        0       20        0      145      324      328      330      325      338      342      344      339
     1577     1586     1580     1575     1613     1622     1616     1611     1578     1588     1593     1581
        1        1        1        1        0        0        0        0       20        0      146      324      325      326      327      338      339      340      341
     1575     1579     1582     1576     1611     1615     1618     1612     1578     1581     1583     1584
        1        1        1        1        0        0        0        0       20        0      147      328      331      333      329      342      345      347      343
     1587     1595     1590     1585     1623     1631     1626     1621     1588     1596     1601     1591
        1        1        1        1        0        0        0        0       20        0      148      329      333      336      330      343      347      350      344
     1590     1600     1592     1589     1626     1636     1628     1625     1591     1601     1606     1593
        1        1        1        1        0        0        0        0       20        0      149      331      332      334      333      345      346      348      347
     1594     1597     1599     1595     1630     1633     1635     1631     1596     1598     1603     1601
        1        1        1        1        0        0        0        0       20        0      150      333      334      335      336      347      348      349      350
     1599     1602     1604     1600     1635     1638     1640     1636     1601     1603     1605     1606
        1        1        1        1        0        0        0        0       20        0      151      338      342      344      339      352      356      358      353
     1613     1622     1616     1611     1649     1658     1652     1647     1614     1624     1629     1617
        1        1        1        1        0        0        0        0       20        0      152      338      339      340      341      352      353      354      355
     1611     1615     1618     1612     1647     1651     1654     1648     1614     1617     1619     1620
        1        1        1        1        0        0        0        0       20        0      153      342      345      347      343      356      359      361      357
     1623     1631     1626     1621     1659     1667     1662     1657     1624     1632     1637     1627
        1        1        1        1        0        0        0        0       20        0      154      343      347      350      344      357      361      364      358
     1626     1636     1628     1625     1662     1672     1664     1661     1627     1637     1642     1629
        1        1        1        1        0        0        0        0       20        0      155      345      346      348      347      359      360      362      361
     1630     1633     1635     1631     1666     1669     1671     1667     1632     1634     1639     1637
        1        1        1        1        0        0        0        0       20        0      156      347      348      349      350      361      362      363      364
     1635     1638     1640     1636     1671     1674     1676     1672     1637     1639     1641     1642
        1        1        1        1        0        0        0        0       20        0      157      352      356      358      353      366      370      372      367
     1649     1658     1652     1647     1685     1694     1688     1683     1650     1660     1665     1653
        1        1        1        1        0        0        0        0       20        0      158      352      353      354      355      366      367      368      369
     1647     1651     1654     1648     1683     1687     1690     1684     1650     1653     1655     1656
        1        1        1        1        0        0        0        0       20        0      159      356      359      361      357      370      373      375      371
     1659     1667     1662     1657     1695     1703     1698     1693     1660     1668     1673     1663
        1        1        1        1        0        0        0        0       20        0      160      357      361      364      358      371      375      378      372
     1662     1672     1664     1661     1698     1708     1700     1697     1663     1673     1678     1665
        1        1        1        1        0        0        0        0       20        0      161      359      360      362      361      373      374      376      375
     1666     1669     1671     1667     1702     1705     1707     1703     1668     1670     1675     1673
        1        1        1        1        0        0        0        0       20        0      162      361      362      363      364      375      376      377      378
     1671     1674     1676     1672     1707     1710     1712     1708     1673     1675     1677     1678
        1        1        1        1        0        0        0        0       20        0      163      366      370      372      367      380      384      386      381
     1685     1694     1688     1683     1721     1730     1724     1719     1686     1696     1701     1689
        1        1        1        1        0        0        0        0       20        0      164      366      367      368      369      380      381      382      383
     1683     1687     1690     1684     1719     1723     1726     1720     1686     1689     1691     1692
        1        1        1        1        0        0        0        0       20        0      165      370      373      375      371      384      387      389      385
     1695     1703     1698     1693     1731     1739     1734     1729     1696     1704     1709     1699
        1        1        1        1        0        0        0        0       20        0      166      371      375      378      372      385      389      392      386
     1698     1708     1700     1697     1734     1744     1736     1733     1699     1709     1714     1701
        1        1        1        1        0        0        0        0       20        0      167      373      374      376      375      387      388      390      389
     1702     1705     1707     1703     1738     1741     1743     1739     1704     1706     1711     1709
        1        1        1        1        0        0        0        0       20        0      168      375      376      377      378      389      390      391      392
     1707     1710     1712     1708     1743     1746     1748     1744     1709     1711     1713     1714
        1        1        1        1        0        0        0        0       20        0      169      380      384      386      381      394      398      400      395
     1721     1730     1724     1719     1757     1766     1760     1755     1722     1732     1737     1725
        1        1        1        1        0        0        0        0       20        0      170      380      381      382      383      394      395      396      397
     1719     1723     1726     1720     1755     1759     1762     1756     1722     1725     1727     1728
        1        1        1        1        0        0        0        0       20        0      171      384      387      389      385      398      401      403      399
     1731     1739     1734     1729     1767     1775     1770     1765     1732     1740     1745     1735
        1        1        1        1        0        0        0        0       20        0      172      385      389      392      386      399      403      406      400
     1734     1744     1736     1733     1770     1780     1772     1769     1735     1745     1750     1737
        1        1        1        1        0        0        0        0       20        0      173      387      388      390      389      401      402      404      403
     1738     1741     1743     1739     1774     1777     1779     1775     1740     1742     1747     1745
        1        1        1        1        0        0        0        0       20        0      174      389      390      391      392      403      404      405      406
     1743     1746     1748     1744     1779     1782     1784     1780     1745     1747     1749     1750
        1        1        1        1        0        0        0        0       20        0      175      394      398      400      395      408      412      414      409
     1757     1766     1760     1755     1793     1802     1796     1791     1758     1768     1773     1761
        1        1        1        1        0        0        0        0       20        0      176      394      395      396      397      408      409      410      411
     1755     1759     1762     1756     1791     1795     1798     1792     1758     1761     1763     1764
        1        1        1        1        0        0        0        0       20        0      177      398      401      403      399      412      415      417      413
     1767     1775     1770     1765     1803     1811     1806     1801     1768     1776     1781     1771
        1        1        1        1        0        0        0        0       20        0      178      399      403      406      400      413      417      420      414
     1770     1780     1772     1769     1806     1816     1808     1805     1771     1781     1786     1773
        1        1        1        1        0        0        0        0       20        0      179      401      402      404      403      415      416      418      417
     1774     1777     1779     1775     1810     1813     1815     1811     1776     1778     1783     1781
        1        1        1        1        0        0        0        0       20        0      180      403      404      405      406      417      418      419      420
     1779     1782     1784     1780     1815     1818     1820     1816     1781     1783     1785     1786
        1        1        1        1        0        0        0        0       20        0      181      408      412      414      409      422      426      428      423
     1793     1802     1796     1791     1829     1838     1832     1827     1794     1804     1809     1797
        1        1        1        1        0        0        0        0       20        0      182      408      409      410      411      422      423      424      425
     1791     1795     1798     1792     1827     1831     1834     1828     1794     1797     1799     1800
        1        1        1        1        0        0        0        0       20        0      183      412      415      417      413      426      429      431      427
     1803     1811     1806     1801     1839     1847     1842     1837     1804     1812     1817     1807
        1        1        1        1        0        0        0        0       20        0      184      413      417      420      414      427      431      434      428
     1806     1816     1808     1805     1842     1852     1844     1841     1807     1817     1822     1809
        1        1        1        1        0        0        0        0       20        0      185      415      416      418      417      429      430      432      431
     1810     1813     1815     1811     1846     1849     1851     1847     1812     1814     1819     1817
        1        1        1        1        0        0        0        0       20        0      186      417      418      419      420      431      432      433      434
     1815     1818     1820     1816     1851     1854     1856     1852     1817     1819     1821     1822
        1        1        1        1        0        0        0        0       20        0      187      422      426      428      423      436      440      442      437
     1829     1838     1832     1827     1865     1874     1868     1863     1830     1840     1845     1833
        1        1        1        1        0        0        0        0       20        0      188      422      423      424      425      436      437      438      439
     1827     1831     1834     1828     1863     1867     1870     1864     1830     1833     1835     1836
        1        1        1        1        0        0        0        0       20        0      189      426      429      431      427      440      443      445      441
     1839     1847     1842     1837     1875     1883     1878     1873     1840     1848     1853     1843
        1        1        1        1        0        0        0        0       20        0      190      427      431      434      428      441      445      448      442
     1842     1852     1844     1841     1878     1888     1880     1877     1843     1853     1858     1845
        1        1        1        1        0        0        0        0       20        0      191      429      430      432      431      443      444      446      445
     1846     1849     1851     1847     1882     1885     1887     1883     1848     1850     1855     1853
        1        1        1        1        0        0        0        0       20        0      192      431      432      433      434      445      446      447      448
     1851     1854     1856     1852     1887     1890     1892     1888     1853     1855     1857     1858
        1        1        1        1        0        0        0        0       20        0      193      436      440      442      437      450      454      456      451
     1865     1874     1868     1863     1901     1910     1904     1899     1866     1876     1881     1869
        1        1        1        1        0        0        0        0       20        0      194      436      437      438      439      450      451      452      453
     1863     1867     1870     1864     1899     1903     1906     1900     1866     1869     1871     1872
        1        1        1        1        0        0        0        0       20        0      195      440      443      445      441      454      457      459      455
     1875     1883     1878     1873     1911     1919     1914     1909     1876     1884     1889     1879
        1        1        1        1        0        0        0        0       20        0      196      441      445      448      442      455      459      462      456
     1878     1888     1880     1877     1914     1924     1916     1913     1879     1889     1894     1881
        1        1        1        1        0        0        0        0       20        0      197      443      444      446      445      457      458      460      459
     1882     1885     1887     1883     1918     1921     1923     1919     1884     1886     1891     1889
        1        1        1        1        0        0        0        0       20        0      198      445      446      447      448      459      460      461      462
     1887     1890     1892     1888     1923     1926     1928     1924     1889     1891     1893     1894
        1        1        1        1        0        0        0        0       20        0      199      450      454      456      451      464      468      470      465
     1901     1910     1904     1899     1937     1946     1940     1935     1902     1912     1917     1905
        1        1        1        1        0        0        0        0       20        0      200      450      451      452      453      464      465      466      467
     1899     1903     1906     1900     1935     1939     1942     1936     1902     1905     1907     1908
        1        1        1        1        0        0        0        0       20        0      201      454      457      459      455      468      471      473      469
     1911     1919     1914     1909     1947     1955     1950     1945     1912     1920     1925     1915
        1        1        1        1        0        0        0        0       20        0      202      455      459      462      456      469      473      476      470
     1914     1924     1916     1913     1950     1960     1952     1949     1915     1925     1930     1917
        1        1        1        1        0        0        0        0       20        0      203      457      458      460      459      471      472      474      473
     1918     1921     1923     1919     1954     1957     1959     1955     1920     1922     1927     1925
        1        1        1        1        0        0        0        0       20        0      204      459      460      461      462      473      474      475      476
     1923     1926     1928     1924     1959     1962     1964     1960     1925     1927     1929     1930
        1        1        1        1        0        0        0        0       20        0      205      464      468      470      465      478      482      484      479
     1937     1946     1940     1935     1973     1982     1976     1971     1938     1948     1953     1941
        1        1        1        1        0        0        0        0       20        0      206      464      465      466      467      478      479      480      481
     1935     1939     1942     1936     1971     1975     1978     1972     1938     1941     1943     1944
        1        1        1        1        0        0        0        0       20        0      207      468      471      473      469      482      485      487      483
     1947     1955     1950     1945     1983     1991     1986     1981     1948     1956     1961     1951
        1        1        1        1        0        0        0        0       20        0      208      469      473      476      470      483      487      490      484
     1950     1960     1952     1949     1986     1996     1988     1985     1951     1961     1966     1953
        1        1        1        1        0        0        0        0       20        0      209      471      472      474      473      485      486      488      487
     1954     1957     1959     1955     1990     1993     1995     1991     1956     1958     1963     1961
        1        1        1        1        0        0        0        0       20        0      210      473      474      475      476      487      488      489      490
     1959     1962     1964     1960     1995     1998     2000     1996     1961     1963     1965     1966
        1        1        1        1        0        0        0        0       20        0      211      478      482      484      479      492      496      498      493
     1973     1982     1976     1971     2009     2018     2012     2007     1974     1984     1989     1977
        1        1        1        1        0        0        0        0       20        0      212      478      479      480      481      492      493      494      495
     1971     1975     1978     1972     2007     2011     2014     2008     1974     1977     1979     1980
        1        1        1        1        0        0        0        0       20        0      213      482      485      487      483      496      499      501      497
     1983     1991     1986     1981     2019     2027     2022     2017     1984     1992     1997     1987
        1        1        1        1        0        0        0        0       20        0      214      483      487      490      484      497      501      504      498
     1986     1996     1988     1985     2022     2032     2024     2021     1987     1997     2002     1989
        1        1        1        1        0        0        0        0       20        0      215      485      486      488      487      499      500      502      501
     1990     1993     1995     1991     2026     2029     2031     2027     1992     1994     1999     1997
        1        1        1        1        0        0        0        0       20        0      216      487      488      489      490      501      502      503      504
     1995     1998     2000     1996     2031     2034     2036     2032     1997     1999     2001     2002
        1        1        1        1        0        0        0        0       20        0      217      492      496      498      493      506      510      512      507
     2009     2018     2012     2007     2045     2054     2048     2043     2010     2020     2025     2013
        1        1        1        1        0        0        0        0       20        0      218      492      493      494      495      506      507      508      509
     2007     2011     2014     2008     2043     2047     2050     2044     2010     2013     2015     2016
        1        1        1        1        0        0        0        0       20        0      219      496      499      501      497      510      513      515      511
     2019     2027     2022     2017     2055     2063     2058     2053     2020     2028     2033     2023
        1        1        1        1        0        0        0        0       20        0      220      497      501      504      498      511      515      518      512
     2022     2032     2024     2021     2058     2068     2060     2057     2023     2033     2038     2025
        1        1        1        1        0        0        0        0       20        0      221      499      500      502      501      513      514      516      515
     2026     2029     2031     2027     2062     2065     2067     2063     2028     2030     2035     2033
        1        1        1        1        0        0        0        0       20        0      222      501      502      503      504      515      516      517      518
     2031     2034     2036     2032     2067     2070     2072     2068     2033     2035     2037     2038
        1        1        1        1        0        0        0        0       20        0      223      506      510      512      507      520      524      526      521
     2045     2054     2048     2043     2081     2090     2084     2079     2046     2056     2061     2049
        1        1        1        1        0        0        0        0       20        0      224      506      507      508      509      520      521      522      523
     2043     2047     2050     2044     2079     2083     2086     2080     2046     2049     2051     2052
        1        1        1        1        0        0        0        0       20        0      225      510      513      515      511      524      527      529      525
     2055     2063     2058     2053     2091     2099     2094     2089     2056     2064     2069     2059
        1        1        1        1        0        0        0        0       20        0      226      511      515      518      512      525      529      532      526
     2058     2068     2060     2057     2094     2104     2096     2093     2059     2069     2074     2061
        1        1        1        1        0        0        0        0       20        0      227      513      514      516      515      527      528      530      529
     2062     2065     2067     2063     2098     2101     2103     2099     2064     2066     2071     2069
        1        1        1        1        0        0        0        0       20        0      228      515      516      517      518      529      530      531      532
     2067     2070     2072     2068     2103     2106     2108     2104     2069     2071     2073     2074
        1        1        1        1        0        0        0        0       20        0      229      520      524      526      521      534      538      540      535
     2081     2090     2084     2079     2117     2126     2120     2115     2082     2092     2097     2085
        1        1        1        1        0        0        0        0       20        0      230      520      521      522      523      534      535      536      537
     2079     2083     2086     2080     2115     2119     2122     2116     2082     2085     2087     2088
        1        1        1        1        0        0        0        0       20        0      231      524      527      529      525      538      541      543      539
     2091     2099     2094     2089     2127     2135     2130     2125     2092     2100     2105     2095
        1        1        1        1        0        0        0        0       20        0      232      525      529      532      526      539      543      546      540
     2094     2104     2096     2093     2130     2140     2132     2129     2095     2105     2110     2097
        1        1        1        1        0        0        0        0       20        0      233      527      528      530      529      541      542      544      543
     2098     2101     2103     2099     2134     2137     2139     2135     2100     2102     2107     2105
        1        1        1        1        0        0        0        0       20        0      234      529      530      531      532      543      544      545      546
     2103     2106     2108     2104     2139     2142     2144     2140     2105     2107     2109     2110
        1        1        1        1        0        0        0        0       20        0      235      534      538      540      535      548      552      554      549
     2117     2126     2120     2115     2153     2162     2156     2151     2118     2128     2133     2121
        1        1        1        1        0        0        0        0       20        0      236      534      535      536      537      548      549      550      551
     2115     2119     2122     2116     2151     2155     2158     2152     2118     2121     2123     2124
        1        1        1        1        0        0        0        0       20        0      237      538      541      543      539      552      555      557      553
     2127     2135     2130     2125     2163     2171     2166     2161     2128     2136     2141     2131
        1        1        1        1        0        0        0        0       20        0      238      539      543      546      540      553      557      560      554
     2130     2140     2132     2129     2166     2176     2168     2165     2131     2141     2146     2133
        1        1        1        1        0        0        0        0       20        0      239      541      542      544      543      555      556      558      557
     2134     2137     2139     2135     2170     2173     2175     2171     2136     2138     2143     2141
        1        1        1        1        0        0        0        0       20        0      240      543      544      545      546      557      558      559      560
     2139     2142     2144     2140     2175     2178     2180     2176     2141     2143     2145     2146
        1        1        1        1        0        0        0        0       20        0      241      548      552      554      549      562      566      568      563
     2153     2162     2156     2151     2189     2198     2192     2187     2154     2164     2169     2157
        1        1        1        1        0        0        0        0       20        0      242      548      549      550      551      562      563      564      565
     2151     2155     2158     2152     2187     2191     2194     2188     2154     2157     2159     2160
        1        1        1        1        0        0        0        0       20        0      243      552      555      557      553      566      569      571      567
     2163     2171     2166     2161     2199     2207     2202     2197     2164     2172     2177     2167
        1        1        1        1        0        0        0        0       20        0      244      553      557      560      554      567      571      574      568
     2166     2176     2168     2165     2202     2212     2204     2201     2167     2177     2182     2169
        1        1        1        1        0        0        0        0       20        0      245      555      556      558      557      569      570      572      571
     2170     2173     2175     2171     2206     2209     2211     2207     2172     2174     2179     2177
        1        1        1        1        0        0        0        0       20        0      246      557      558      559      560      571      572      573      574
     2175     2178     2180     2176     2211     2214     2216     2212     2177     2179     2181     2182
        1        1        1        1        0        0        0        0       20        0      247      562      566      568      563      576      580      582      577
     2189     2198     2192     2187     2225     2234     2228     2223     2190     2200     2205     2193
        1        1        1        1        0        0        0        0       20        0      248      562      563      564      565      576      577      578      579
     2187     2191     2194     2188     2223     2227     2230     2224     2190     2193     2195     2196
        1        1        1        1        0        0        0        0       20        0      249      566      569      571      567      580      583      585      581
     2199     2207     2202     2197     2235     2243     2238     2233     2200     2208     2213     2203
        1        1        1        1        0        0        0        0       20        0      250      567      571      574      568      581      585      588      582
     2202     2212     2204     2201     2238     2248     2240     2237     2203     2213     2218     2205
        1        1        1        1        0        0        0        0       20        0      251      569      570      572      571      583      584      586      585
     2206     2209     2211     2207     2242     2245     2247     2243     2208     2210     2215     2213
        1        1        1        1        0        0        0        0       20        0      252      571      572      573      574      585      586      587      588
     2211     2214     2216     2212     2247     2250     2252     2248     2213     2215     2217     2218
        1        1        1        1        0        0        0        0       20        0      253      576      580      582      577      590      594      596      591
     2225     2234     2228     2223     2261     2270     2264     2259     2226     2236     2241     2229
        1        1        1        1        0        0        0        0       20        0      254      576      577      578      579      590      591      592      593
     2223     2227     2230     2224     2259     2263     2266     2260     2226     2229     2231     2232
        1        1        1        1        0        0        0        0       20        0      255      580      583      585      581      594      597      599      595
     2235     2243     2238     2233     2271     2279     2274     2269     2236     2244     2249     2239
        1        1        1        1        0        0        0        0       20        0      256      581      585      588      582      595      599      602      596
     2238     2248     2240     2237     2274     2284     2276     2273     2239     2249     2254     2241
        1        1        1        1        0        0        0        0       20        0      257      583      584      586      585      597      598      600      599
     2242     2245     2247     2243     2278     2281     2283     2279     2244     2246     2251     2249
        1        1        1        1        0        0        0        0       20        0      258      585      586      587      588      599      600      601      602
     2247     2250     2252     2248     2283     2286     2288     2284     2249     2251     2253     2254
        1        1        1        1        0        0        0        0       20        0      259      590      594      596      591      604      608      610      605
     2261     2270     2264     2259     2297     2306     2300     2295     2262     2272     2277     2265
        1        1        1        1        0        0        0        0       20        0      260      590      591      592      593      604      605      606      607
     2259     2263     2266     2260     2295     2299     2302     2296     2262     2265     2267     2268
        1        1        1        1        0        0        0        0       20        0      261      594      597      599      595      608      611      613      609
     2271     2279     2274     2269     2307     2315     2310     2305     2272     2280     2285     2275
        1        1        1        1        0        0        0        0       20        0      262      595      599      602      596      609      613      616      610
     2274     2284     2276     2273     2310     2320     2312     2309     2275     2285     2290     2277
        1        1        1        1        0        0        0        0       20        0      263      597      598      600      599      611      612      614      613
     2278     2281     2283     2279     2314     2317     2319     2315     2280     2282     2287     2285
        1        1        1        1        0        0        0        0       20        0      264      599      600      601      602      613      614      615      616
     2283     2286     2288     2284     2319     2322     2324     2320     2285     2287     2289     2290
        1        1        1        1        0        0        0        0       20        0      265      604      608      610      605      618      622      624      619
     2297     2306     2300     2295     2333     2342     2336     2331     2298     2308     2313     2301
        1        1        1        1        0        0        0        0       20        0      266      604      605      606      607      618      619      620      621
     2295     2299     2302     2296     2331     2335     2338     2332     2298     2301     2303     2304
        1        1        1        1        0        0        0        0       20        0      267      608      611      613      609      622      625      627      623
     2307     2315     2310     2305     2343     2351     2346     2341     2308     2316     2321     2311
        1        1        1        1        0        0        0        0       20        0      268      609      613      616      610      623      627      630      624
     2310     2320     2312     2309     2346     2356     2348     2345     2311     2321     2326     2313
        1        1        1        1        0        0        0        0       20        0      269      611      612      614      613      625      626      628      627
     2314     2317     2319     2315     2350     2353     2355     2351     2316     2318     2323     2321
        1        1        1        1        0        0        0        0       20        0      270      613      614      615      616      627      628      629      630
     2319     2322     2324     2320     2355     2358     2360     2356     2321     2323     2325     2326
        1        1        1        1        0        0        0        0       20        0      271      618      622      624      619      632      636      638      633
     2333     2342     2336     2331     2369     2378     2372     2367     2334     2344     2349     2337
        1        1        1        1        0        0        0        0       20        0      272      618      619      620      621      632      633      634      635
     2331     2335     2338     2332     2367     2371     2374     2368     2334     2337     2339     2340
        1        1        1        1        0        0        0        0       20        0      273      622      625      627      623      636      639      641      637
     2343     2351     2346     2341     2379     2387     2382     2377     2344     2352     2357     2347
        1        1        1        1        0        0        0        0       20        0      274      623      627      630      624      637      641      644      638
     2346     2356     2348     2345     2382     2392     2384     2381     2347     2357     2362     2349
        1        1        1        1        0        0        0        0       20        0      275      625      626      628      627      639      640      642      641
     2350     2353     2355     2351     2386     2389     2391     2387     2352     2354     2359     2357
        1        1        1        1        0        0        0        0       20        0      276      627      628      629      630      641      642      643      644
     2355     2358     2360     2356     2391     2394     2396     2392     2357     2359     2361     2362
        1        1        1        1        0        0        0        0       20        0      277      632      636      638      633      646      650      652      647
     2369     2378     2372     2367     2405     2414     2408     2403     2370     2380     2385     2373
        1        1        1        1        0        0        0        0       20        0      278      632      633      634      635      646      647      648      649
     2367     2371     2374     2368     2403     2407     2410     2404     2370     2373     2375     2376
        1        1        1        1        0        0        0        0       20        0      279      636      639      641      637      650      653      655      651
     2379     2387     2382     2377     2415     2423     2418     2413     2380     2388     2393     2383
        1        1        1        1        0        0        0        0       20        0      280      637      641      644      638      651      655      658      652
     2382     2392     2384     2381     2418     2428     2420     2417     2383     2393     2398     2385
        1        1        1        1        0        0        0        0       20        0      281      639      640      642      641      653      654      656      655
     2386     2389     2391     2387     2422     2425     2427     2423     2388     2390     2395     2393
        1        1        1        1        0        0        0        0       20        0      282      641      642      643      644      655      656      657      658
     2391     2394     2396     2392     2427     2430     2432     2428     2393     2395     2397     2398
        1        1        1        1        0        0        0        0       20        0      283      646      650      652      647      660      664      666      661
     2405     2414     2408     2403     2441     2450     2444     2439     2406     2416     2421     2409
        1        1        1        1        0        0        0        0       20        0      284      646      647      648      649      660      661      662      663
     2403     2407     2410     2404     2439     2443     2446     2440     2406     2409     2411     2412
        1        1        1        1        0        0        0        0       20        0      285      650      653      655      651      664      667      669      665
     2415     2423     2418     2413     2451     2459     2454     2449     2416     2424     2429     2419
        1        1        1        1        0        0        0        0       20        0      286      651      655      658      652      665      669      672      666
     2418     2428     2420     2417     2454     2464     2456     2453     2419     2429     2434     2421
        1        1        1        1        0        0        0        0       20        0      287      653      654      656      655      667      668      670      669
     2422     2425     2427     2423     2458     2461     2463     2459     2424     2426     2431     2429
        1        1        1        1        0        0        0        0       20        0      288      655      656      657      658      669      670      671      672
     2427     2430     2432     2428     2463     2466     2468     2464     2429     2431     2433     2434
        1        1        1        1        0        0        0        0       20        0      289      660      664      666      661      674      678      680      675
     2441     2450     2444     2439     2477     2486     2480     2475     2442     2452     2457     2445
        1        1        1        1        0        0        0        0       20        0      290      660      661      662      663      674      675      676      677
     2439     2443     2446     2440     2475     2479     2482     2476     2442     2445     2447     2448
        1        1        1        1        0        0        0        0       20        0      291      664      667      669      665      678      681      683      679
     2451     2459     2454     2449     2487     2495     2490     2485     2452     2460     2465     2455
        1        1        1        1        0        0        0        0       20        0      292      665      669      672      666      679      683      686      680
     2454     2464     2456     2453     2490     2500     2492     2489     2455     2465     2470     2457
        1        1        1        1        0        0        0        0       20        0      293      667      668      670      669      681      682      684      683
     2458     2461     2463     2459     2494     2497     2499     2495     2460     2462     2467     2465
        1        1        1        1        0        0        0        0       20        0      294      669      670      671      672      683      684      685      686
     2463     2466     2468     2464     2499     2502     2504     2500     2465     2467     2469     2470
        1        1        1        1        0        0        0        0       20        0      295      674      678      680      675      688      692      694      689
     2477     2486     2480     2475     2513     2522     2516     2511     2478     2488     2493     2481
        1        1        1        1        0        0        0        0       20        0      296      674      675      676      677      688      689      690      691
     2475     2479     2482     2476     2511     2515     2518     2512     2478     2481     2483     2484
        1        1        1        1        0        0        0        0       20        0      297      678      681      683      679      692      695      697      693
     2487     2495     2490     2485     2523     2531     2526     2521     2488     2496     2501     2491
        1        1        1        1        0        0        0        0       20        0      298      679      683      686      680      693      697      700      694
     2490     2500     2492     2489     2526     2536     2528     2525     2491     2501     2506     2493
        1        1        1        1        0        0        0        0       20        0      299      681      682      684      683      695      696      698      697
     2494     2497     2499     2495     2530     2533     2535     2531     2496     2498     2503     2501
        1        1        1        1        0        0        0        0       20        0      300      683      684      685      686      697      698      699      700
     2499     2502     2504     2500     2535     2538     2540     2536     2501     2503     2505     2506
        1        1        1        1        0        0        0        0       20        0      301      688      692      694      689      702      706      708      703
     2513     2522     2516     2511     2549     2558     2552     2547     2514     2524     2529     2517
        1        1        1        1        0        0        0        0       20        0      302      688      689      690      691      702      703      704      705
     2511     2515     2518     2512     2547     2551     2554     2548     2514     2517     2519     2520
        1        1        1        1        0        0        0        0       20        0      303      692      695      697      693      706      709      711      707
     2523     2531     2526     2521     2559     2567     2562     2557     2524     2532     2537     2527
        1        1        1        1        0        0        0        0       20        0      304      693      697      700      694      707      711      714      708
     2526     2536     2528     2525     2562     2572     2564     2561     2527     2537     2542     2529
        1        1        1        1        0        0        0        0       20        0      305      695      696      698      697      709      710      712      711
     2530     2533     2535     2531     2566     2569     2571     2567     2532     2534     2539     2537
        1        1        1        1        0        0        0        0       20        0      306      697      698      699      700      711      712      713      714
     2535     2538     2540     2536     2571     2574     2576     2572     2537     2539     2541     2542
        1        1        1        1        0        0        0        0       20        0      307      702      706      708      703      715      720      723      724
     2549     2558     2552     2547     2579     2594     2598     2581     2550     2560     2565     2553
        1        1        1        1        0        0        0        0       20        0      308      702      703      704      705      715      724      728      726
     2547     2551     2554     2548     2581     2599     2600     2582     2550     2553     2555     2556
        1        1        1        1        0        0        0        0       20        0      309      706      709      711      707      720      719      717      716
     2559     2567     2562     2557     2591     2587     2583     2584     2560     2568     2573     2563
        1        1        1        1        0        0        0        0       20        0      310      707      711      714      708      716      717      722      723
     2562     2572     2564     2561     2583     2588     2596     2585     2563     2573     2578     2565
        1        1        1        1        0        0        0        0       20        0      311      709      710      712      711      719      725      718      717
     2566     2569     2571     2567     2592     2589     2586     2587     2568     2570     2575     2573
        1        1        1        1        0        0        0        0       20        0      312      711      712      713      714      717      718      727      722
     2571     2574     2576     2572     2586     2590     2597     2588     2573     2575     2577     2578
        1        1        1        1        0        0        0        0       20        0      313        1        5        2        2      721      726      715      715
      730      735        2      729     2595     2582      715     2580      733      747      738      738
        1        1        1        1        0        0        0        0       20        0      314        1        2        6        6      721      715      720      720
      729      736        6      731     2580     2579      720     2593      733      738      752      752
        1        1        1        1        0        0        0        0       20        0      315        6        8        7        7      720      723      716      716
      749      753        7      748     2594     2585      716     2584      752      759      756      756
        1        1        1        1        0        0        0        0       20        0      316        1        2        5        5       15       16       19       19
      729      735        5      730      779      784       19      780      732      737      746      746
        1        1        1        1        0        0        0        0       20        0      317        1        6        2        2       15       20       16       16
      731      736        2      729      781      785       16      779      732      751      737      737
        1        1        1        1        0        0        0        0       20        0      318        6        7        8        8       20       21       22       22
      748      753        8      749      793      797       22      794      751      755      758      758
        1        1        1        1        0        0        0        0       20        0      319       15       16       19       19       29       30       33       33
      779      784       19      780      815      820       33      816      782      786      792      792
        1        1        1        1        0        0        0        0       20        0      320       15       20       16       16       29       34       30       30
      781      785       16      779      817      821       30      815      782      796      786      786
        1        1        1        1        0        0        0        0       20        0      321       20       21       22       22       34       35       36       36
      793      797       22      794      829      833       36      830      796      799      801      801
        1        1        1        1        0        0        0        0       20        0      322       29       30       33       33       43       44       47       47
      815      820       33      816      851      856       47      852      818      822      828      828
        1        1        1        1        0        0        0        0       20        0      323       29       34       30       30       43       48       44       44
      817      821       30      815      853      857       44      851      818      832      822      822
        1        1        1        1        0        0        0        0       20        0      324       34       35       36       36       48       49       50       50
      829      833       36      830      865      869       50      866      832      835      837      837
        1        1        1        1        0        0        0        0       20        0      325       43       44       47       47       57       58       61       61
      851      856       47      852      887      892       61      888      854      858      864      864
        1        1        1        1        0        0        0        0       20        0      326       43       48       44       44       57       62       58       58
      853      857       44      851      889      893       58      887      854      868      858      858
        1        1        1        1        0        0        0        0       20        0      327       48       49       50       50       62       63       64       64
      865      869       50      866      901      905       64      902      868      871      873      873
        1        1        1        1        0        0        0        0       20        0      328       57       58       61       61       71       72       75       75
      887      892       61      888      923      928       75      924      890      894      900      900
        1        1        1        1        0        0        0        0       20        0      329       57       62       58       58       71       76       72       72
      889      893       58      887      925      929       72      923      890      904      894      894
        1        1        1        1        0        0        0        0       20        0      330       62       63       64       64       76       77       78       78
      901      905       64      902      937      941       78      938      904      907      909      909
        1        1        1        1        0        0        0        0       20        0      331       71       72       75       75       85       86       89       89
      923      928       75      924      959      964       89      960      926      930      936      936
        1        1        1        1        0        0        0        0       20        0      332       71       76       72       72       85       90       86       86
      925      929       72      923      961      965       86      959      926      940      930      930
        1        1        1        1        0        0        0        0       20        0      333       76       77       78       78       90       91       92       92
      937      941       78      938      973      977       92      974      940      943      945      945
        1        1        1        1        0        0        0        0       20        0      334       85       86       89       89       99      100      103      103
      959      964       89      960      995     1000      103      996      962      966      972      972
        1        1        1        1        0        0        0        0       20        0      335       85       90       86       86       99      104      100      100
      961      965       86      959      997     1001      100      995      962      976      966      966
        1        1        1        1        0        0        0        0       20        0      336       90       91       92       92      104      105      106      106
      973      977       92      974     1009     1013      106     1010      976      979      981      981
        1        1        1        1        0        0        0        0       20        0      337       99      100      103      103      113      114      117      117
      995     1000      103      996     1031     1036      117     1032      998     1002     1008     1008
        1        1        1        1        0        0        0        0       20        0      338       99      104      100      100      113      118      114      114
      997     1001      100      995     1033     1037      114     1031      998     1012     1002     1002
        1        1        1        1        0        0        0        0       20        0      339      104      105      106      106      118      119      120      120
     1009     1013      106     1010     1045     1049      120     1046     1012     1015     1017     1017
        1        1        1        1        0        0        0        0       20        0      340      113      114      117      117      127      128      131      131
     1031     1036      117     1032     1067     1072      131     1068     1034     1038     1044     1044
        1        1        1        1        0        0        0        0       20        0      341      113      118      114      114      127      132      128      128
     1033     1037      114     1031     1069     1073      128     1067     1034     1048     1038     1038
        1        1        1        1        0        0        0        0       20        0      342      118      119      120      120      132      133      134      134
     1045     1049      120     1046     1081     1085      134     1082     1048     1051     1053     1053
        1        1        1        1        0        0        0        0       20        0      343      127      128      131      131      141      142      145      145
     1067     1072      131     1068     1103     1108      145     1104     1070     1074     1080     1080
        1        1        1        1        0        0        0        0       20        0      344      127      132      128      128      141      146      142      142
     1069     1073      128     1067     1105     1109      142     1103     1070     1084     1074     1074
        1        1        1        1        0        0        0        0       20        0      345      132      133      134      134      146      147      148      148
     1081     1085      134     1082     1117     1121      148     1118     1084     1087     1089     1089
        1        1        1        1        0        0        0        0       20        0      346      141      142      145      145      155      156      159      159
     1103     1108      145     1104     1139     1144      159     1140     1106     1110     1116     1116
        1        1        1        1        0        0        0        0       20        0      347      141      146      142      142      155      160      156      156
     1105     1109      142     1103     1141     1145      156     1139     1106     1120     1110     1110
        1        1        1        1        0        0        0        0       20        0      348      146      147      148      148      160      161      162      162
     1117     1121      148     1118     1153     1157      162     1154     1120     1123     1125     1125
        1        1        1        1        0        0        0        0       20        0      349      155      156      159      159      169      170      173      173
     1139     1144      159     1140     1175     1180      173     1176     1142     1146     1152     1152
        1        1        1        1        0        0        0        0       20        0      350      155      160      156      156      169      174      170      170
     1141     1145      156     1139     1177     1181      170     1175     1142     1156     1146     1146
        1        1        1        1        0        0        0        0       20        0      351      160      161      162      162      174      175      176      176
     1153     1157      162     1154     1189     1193      176     1190     1156     1159     1161     1161
        1        1        1        1        0        0        0        0       20        0      352      169      170      173      173      183      184      187      187
     1175     1180      173     1176     1211     1216      187     1212     1178     1182     1188     1188
        1        1        1        1        0        0        0        0       20        0      353      169      174      170      170      183      188      184      184
     1177     1181      170     1175     1213     1217      184     1211     1178     1192     1182     1182
        1        1        1        1        0        0        0        0       20        0      354      174      175      176      176      188      189      190      190
     1189     1193      176     1190     1225     1229      190     1226     1192     1195     1197     1197
        1        1        1        1        0        0        0        0       20        0      355      183      184      187      187      197      198      201      201
     1211     1216      187     1212     1247     1252      201     1248     1214     1218     1224     1224
        1        1        1        1        0        0        0        0       20        0      356      183      188      184      184      197      202      198      198
     1213     1217      184     1211     1249     1253      198     1247     1214     1228     1218     1218
        1        1        1        1        0        0        0        0       20        0      357      188      189      190      190      202      203      204      204
     1225     1229      190     1226     1261     1265      204     1262     1228     1231     1233     1233
        1        1        1        1        0        0        0        0       20        0      358      197      198      201      201      211      212      215      215
     1247     1252      201     1248     1283     1288      215     1284     1250     1254     1260     1260
        1        1        1        1        0        0        0        0       20        0      359      197      202      198      198      211      216      212      212
     1249     1253      198     1247     1285     1289      212     1283     1250     1264     1254     1254
        1        1        1        1        0        0        0        0       20        0      360      202      203      204      204      216      217      218      218
     1261     1265      204     1262     1297     1301      218     1298     1264     1267     1269     1269
        1        1        1        1        0        0        0        0       20        0      361      211      212      215      215      225      226      229      229
     1283     1288      215     1284     1319     1324      229     1320     1286     1290     1296     1296
        1        1        1        1        0        0        0        0       20        0      362      211      216      212      212      225      230      226      226
     1285     1289      212     1283     1321     1325      226     1319     1286     1300     1290     1290
        1        1        1        1        0        0        0        0       20        0      363      216      217      218      218      230      231      232      232
     1297     1301      218     1298     1333     1337      232     1334     1300     1303     1305     1305
        1        1        1        1        0        0        0        0       20        0      364      225      226      229      229      239      240      243      243
     1319     1324      229     1320     1355     1360      243     1356     1322     1326     1332     1332
        1        1        1        1        0        0        0        0       20        0      365      225      230      226      226      239      244      240      240
     1321     1325      226     1319     1357     1361      240     1355     1322     1336     1326     1326
        1        1        1        1        0        0        0        0       20        0      366      230      231      232      232      244      245      246      246
     1333     1337      232     1334     1369     1373      246     1370     1336     1339     1341     1341
        1        1        1        1        0        0        0        0       20        0      367      239      240      243      243      253      254      257      257
     1355     1360      243     1356     1391     1396      257     1392     1358     1362     1368     1368
        1        1        1        1        0        0        0        0       20        0      368      239      244      240      240      253      258      254      254
     1357     1361      240     1355     1393     1397      254     1391     1358     1372     1362     1362
        1        1        1        1        0        0        0        0       20        0      369      244      245      246      246      258      259      260      260
     1369     1373      246     1370     1405     1409      260     1406     1372     1375     1377     1377
        1        1        1        1        0        0        0        0       20        0      370      253      254      257      257      267      268      271      271
     1391     1396      257     1392     1427     1432      271     1428     1394     1398     1404     1404
        1        1        1        1        0        0        0        0       20        0      371      253      258      254      254      267      272      268      268
     1393     1397      254     1391     1429     1433      268     1427     1394     1408     1398     1398
        1        1        1        1        0        0        0        0       20        0      372      258      259      260      260      272      273      274      274
     1405     1409      260     1406     1441     1445      274     1442     1408     1411     1413     1413
        1        1        1        1        0        0        0        0       20        0      373      267      268      271      271      281      282      285      285
     1427     1432      271     1428     1463     1468      285     1464     1430     1434     1440     1440
        1        1        1        1        0        0        0        0       20        0      374      267      272      268      268      281      286      282      282
     1429     1433      268     1427     1465     1469      282     1463     1430     1444     1434     1434
        1        1        1        1        0        0        0        0       20        0      375      272      273      274      274      286      287      288      288
     1441     1445      274     1442     1477     1481      288     1478     1444     1447     1449     1449
        1        1        1        1        0        0        0        0       20        0      376      281      282      285      285      295      296      299      299
     1463     1468      285     1464     1499     1504      299     1500     1466     1470     1476     1476
        1        1        1        1        0        0        0        0       20        0      377      281      286      282      282      295      300      296      296
     1465     1469      282     1463     1501     1505      296     1499     1466     1480     1470     1470
        1        1        1        1        0        0        0        0       20        0      378      286      287      288      288      300      301      302      302
     1477     1481      288     1478     1513     1517      302     1514     1480     1483     1485     1485
        1        1        1        1        0        0        0        0       20        0      379      295      296      299      299      309      310      313      313
     1499     1504      299     1500     1535     1540      313     1536     1502     1506     1512     1512
        1        1        1        1        0        0        0        0       20        0      380      295      300      296      296      309      314      310      310
     1501     1505      296     1499     1537     1541      310     1535     1502     1516     1506     1506
        1        1        1        1        0        0        0        0       20        0      381      300      301      302      302      314      315      316      316
     1513     1517      302     1514     1549     1553      316     1550     1516     1519     1521     1521
        1        1        1        1        0        0        0        0       20        0      382      309      310      313      313      323      324      327      327
     1535     1540      313     1536     1571     1576      327     1572     1538     1542     1548     1548
        1        1        1        1        0        0        0        0       20        0      383      309      314      310      310      323      328      324      324
     1537     1541      310     1535     1573     1577      324     1571     1538     1552     1542     1542
        1        1        1        1        0        0        0        0       20        0      384      314      315      316      316      328      329      330      330
     1549     1553      316     1550     1585     1589      330     1586     1552     1555     1557     1557
        1        1        1        1        0        0        0        0       20        0      385      323      324      327      327      337      338      341      341
     1571     1576      327     1572     1607     1612      341     1608     1574     1578     1584     1584
        1        1        1        1        0        0        0        0       20        0      386      323      328      324      324      337      342      338      338
     1573     1577      324     1571     1609     1613      338     1607     1574     1588     1578     1578
        1        1        1        1        0        0        0        0       20        0      387      328      329      330      330      342      343      344      344
     1585     1589      330     1586     1621     1625      344     1622     1588     1591     1593     1593
        1        1        1        1        0        0        0        0       20        0      388      337      338      341      341      351      352      355      355
     1607     1612      341     1608     1643     1648      355     1644     1610     1614     1620     1620
        1        1        1        1        0        0        0        0       20        0      389      337      342      338      338      351      356      352      352
     1609     1613      338     1607     1645     1649      352     1643     1610     1624     1614     1614
        1        1        1        1        0        0        0        0       20        0      390      342      343      344      344      356      357      358      358
     1621     1625      344     1622     1657     1661      358     1658     1624     1627     1629     1629
        1        1        1        1        0        0        0        0       20        0      391      351      352      355      355      365      366      369      369
     1643     1648      355     1644     1679     1684      369     1680     1646     1650     1656     1656
        1        1        1        1        0        0        0        0       20        0      392      351      356      352      352      365      370      366      366
     1645     1649      352     1643     1681     1685      366     1679     1646     1660     1650     1650
        1        1        1        1        0        0        0        0       20        0      393      356      357      358      358      370      371      372      372
     1657     1661      358     1658     1693     1697      372     1694     1660     1663     1665     1665
        1        1        1        1        0        0        0        0       20        0      394      365      366      369      369      379      380      383      383
     1679     1684      369     1680     1715     1720      383     1716     1682     1686     1692     1692
        1        1        1        1        0        0        0        0       20        0      395      365      370      366      366      379      384      380      380
     1681     1685      366     1679     1717     1721      380     1715     1682     1696     1686     1686
        1        1        1        1        0        0        0        0       20        0      396      370      371      372      372      384      385      386      386
     1693     1697      372     1694     1729     1733      386     1730     1696     1699     1701     1701
        1        1        1        1        0        0        0        0       20        0      397      379      380      383      383      393      394      397      397
     1715     1720      383     1716     1751     1756      397     1752     1718     1722     1728     1728
        1        1        1        1        0        0        0        0       20        0      398      379      384      380      380      393      398      394      394
     1717     1721      380     1715     1753     1757      394     1751     1718     1732     1722     1722
        1        1        1        1        0        0        0        0       20        0      399      384      385      386      386      398      399      400      400
     1729     1733      386     1730     1765     1769      400     1766     1732     1735     1737     1737
        1        1        1        1        0        0        0        0       20        0      400      393      394      397      397      407      408      411      411
     1751     1756      397     1752     1787     1792      411     1788     1754     1758     1764     1764
        1        1        1        1        0        0        0        0       20        0      401      393      398      394      394      407      412      408      408
     1753     1757      394     1751     1789     1793      408     1787     1754     1768     1758     1758
        1        1        1        1        0        0        0        0       20        0      402      398      399      400      400      412      413      414      414
     1765     1769      400     1766     1801     1805      414     1802     1768     1771     1773     1773
        1        1        1        1        0        0        0        0       20        0      403      407      408      411      411      421      422      425      425
     1787     1792      411     1788     1823     1828      425     1824     1790     1794     1800     1800
        1        1        1        1        0        0        0        0       20        0      404      407      412      408      408      421      426      422      422
     1789     1793      408     1787     1825     1829      422     1823     1790     1804     1794     1794
        1        1        1        1        0        0        0        0       20        0      405      412      413      414      414      426      427      428      428
     1801     1805      414     1802     1837     1841      428     1838     1804     1807     1809     1809
        1        1        1        1        0        0        0        0       20        0      406      421      422      425      425      435      436      439      439
     1823     1828      425     1824     1859     1864      439     1860     1826     1830     1836     1836
        1        1        1        1        0        0        0        0       20        0      407      421      426      422      422      435      440      436      436
     1825     1829      422     1823     1861     1865      436     1859     1826     1840     1830     1830
        1        1        1        1        0        0        0        0       20        0      408      426      427      428      428      440      441      442      442
     1837     1841      428     1838     1873     1877      442     1874     1840     1843     1845     1845
        1        1        1        1        0        0        0        0       20        0      409      435      436      439      439      449      450      453      453
     1859     1864      439     1860     1895     1900      453     1896     1862     1866     1872     1872
        1        1        1        1        0        0        0        0       20        0      410      435      440      436      436      449      454      450      450
     1861     1865      436     1859     1897     1901      450     1895     1862     1876     1866     1866
        1        1        1        1        0        0        0        0       20        0      411      440      441      442      442      454      455      456      456
     1873     1877      442     1874     1909     1913      456     1910     1876     1879     1881     1881
        1        1        1        1        0        0        0        0       20        0      412      449      450      453      453      463      464      467      467
     1895     1900      453     1896     1931     1936      467     1932     1898     1902     1908     1908
        1        1        1        1        0        0        0        0       20        0      413      449      454      450      450      463      468      464      464
     1897     1901      450     1895     1933     1937      464     1931     1898     1912     1902     1902
        1        1        1        1        0        0        0        0       20        0      414      454      455      456      456      468      469      470      470
     1909     1913      456     1910     1945     1949      470     1946     1912     1915     1917     1917
        1        1        1        1        0        0        0        0       20        0      415      463      464      467      467      477      478      481      481
     1931     1936      467     1932     1967     1972      481     1968     1934     1938     1944     1944
        1        1        1        1        0        0        0        0       20        0      416      463      468      464      464      477      482      478      478
     1933     1937      464     1931     1969     1973      478     1967     1934     1948     1938     1938
        1        1        1        1        0        0        0        0       20        0      417      468      469      470      470      482      483      484      484
     1945     1949      470     1946     1981     1985      484     1982     1948     1951     1953     1953
        1        1        1        1        0        0        0        0       20        0      418      477      478      481      481      491      492      495      495
     1967     1972      481     1968     2003     2008      495     2004     1970     1974     1980     1980
        1        1        1        1        0        0        0        0       20        0      419      477      482      478      478      491      496      492      492
     1969     1973      478     1967     2005     2009      492     2003     1970     1984     1974     1974
        1        1        1        1        0        0        0        0       20        0      420      482      483      484      484      496      497      498      498
     1981     1985      484     1982     2017     2021      498     2018     1984     1987     1989     1989
        1        1        1        1        0        0        0        0       20        0      421      491      492      495      495      505      506      509      509
     2003     2008      495     2004     2039     2044      509     2040     2006     2010     2016     2016
        1        1        1        1        0        0        0        0       20        0      422      491      496      492      492      505      510      506      506
     2005     2009      492     2003     2041     2045      506     2039     2006     2020     2010     2010
        1        1        1        1        0        0        0        0       20        0      423      496      497      498      498      510      511      512      512
     2017     2021      498     2018     2053     2057      512     2054     2020     2023     2025     2025
        1        1        1        1        0        0        0        0       20        0      424      505      506      509      509      519      520      523      523
     2039     2044      509     2040     2075     2080      523     2076     2042     2046     2052     2052
        1        1        1        1        0        0        0        0       20        0      425      505      510      506      506      519      524      520      520
     2041     2045      506     2039     2077     2081      520     2075     2042     2056     2046     2046
        1        1        1        1        0        0        0        0       20        0      426      510      511      512      512      524      525      526      526
     2053     2057      512     2054     2089     2093      526     2090     2056     2059     2061     2061
        1        1        1        1        0        0        0        0       20        0      427      519      520      523      523      533      534      537      537
     2075     2080      523     2076     2111     2116      537     2112     2078     2082     2088     2088
        1        1        1        1        0        0        0        0       20        0      428      519      524      520      520      533      538      534      534
     2077     2081      520     2075     2113     2117      534     2111     2078     2092     2082     2082
        1        1        1        1        0        0        0        0       20        0      429      524      525      526      526      538      539      540      540
     2089     2093      526     2090     2125     2129      540     2126     2092     2095     2097     2097
        1        1        1        1        0        0        0        0       20        0      430      533      534      537      537      547      548      551      551
     2111     2116      537     2112     2147     2152      551     2148     2114     2118     2124     2124
        1        1        1        1        0        0        0        0       20        0      431      533      538      534      534      547      552      548      548
     2113     2117      534     2111     2149     2153      548     2147     2114     2128     2118     2118
        1        1        1        1        0        0        0        0       20        0      432      538      539      540      540      552      553      554      554
     2125     2129      540     2126     2161     2165      554     2162     2128     2131     2133     2133
        1        1        1        1        0        0        0        0       20        0      433      547      548      551      551      561      562      565      565
     2147     2152      551     2148     2183     2188      565     2184     2150     2154     2160     2160
        1        1        1        1        0        0        0        0       20        0      434      547      552      548      548      561      566      562      562
     2149     2153      548     2147     2185     2189      562     2183     2150     2164     2154     2154
        1        1        1        1        0        0        0        0       20        0      435      552      553      554      554      566      567      568      568
     2161     2165      554     2162     2197     2201      568     2198     2164     2167     2169     2169
        1        1        1        1        0        0        0        0       20        0      436      561      562      565      565      575      576      579      579
     2183     2188      565     2184     2219     2224      579     2220     2186     2190     2196     2196
        1        1        1        1        0        0        0        0       20        0      437      561      566      562      562      575      580      576      576
     2185     2189      562     2183     2221     2225      576     2219     2186     2200     2190     2190
        1        1        1        1        0        0        0        0       20        0      438      566      567      568      568      580      581      582      582
     2197     2201      568     2198     2233     2237      582     2234     2200     2203     2205     2205
        1        1        1        1        0        0        0        0       20        0      439      575      576      579      579      589      590      593      593
     2219     2224      579     2220     2255     2260      593     2256     2222     2226     2232     2232
        1        1        1        1        0        0        0        0       20        0      440      575      580      576      576      589      594      590      590
     2221     2225      576     2219     2257     2261      590     2255     2222     2236     2226     2226
        1        1        1        1        0        0        0        0       20        0      441      580      581      582      582      594      595      596      596
     2233     2237      582     2234     2269     2273      596     2270     2236     2239     2241     2241
        1        1        1        1        0        0        0        0       20        0      442      589      590      593      593      603      604      607      607
     2255     2260      593     2256     2291     2296      607     2292     2258     2262     2268     2268
        1        1        1        1        0        0        0        0       20        0      443      589      594      590      590      603      608      604      604
     2257     2261      590     2255     2293     2297      604     2291     2258     2272     2262     2262
        1        1        1        1        0        0        0        0       20        0      444      594      595      596      596      608      609      610      610
     2269     2273      596     2270     2305     2309      610     2306     2272     2275     2277     2277
        1        1        1        1        0        0        0        0       20        0      445      603      604      607      607      617      618      621      621
     2291     2296      607     2292     2327     2332      621     2328     2294     2298     2304     2304
        1        1        1        1        0        0        0        0       20        0      446      603      608      604      604      617      622      618      618
     2293     2297      604     2291     2329     2333      618     2327     2294     2308     2298     2298
        1        1        1        1        0        0        0        0       20        0      447      608      609      610      610      622      623      624      624
     2305     2309      610     2306     2341     2345      624     2342     2308     2311     2313     2313
        1        1        1        1        0        0        0        0       20        0      448      617      618      621      621      631      632      635      635
     2327     2332      621     2328     2363     2368      635     2364     2330     2334     2340     2340
        1        1        1        1        0        0        0        0       20        0      449      617      622      618      618      631      636      632      632
     2329     2333      618     2327     2365     2369      632     2363     2330     2344     2334     2334
        1        1        1        1        0        0        0        0       20        0      450      622      623      624      624      636      637      638      638
     2341     2345      624     2342     2377     2381      638     2378     2344     2347     2349     2349
        1        1        1        1        0        0        0        0       20        0      451      631      632      635      635      645      646      649      649
     2363     2368      635     2364     2399     2404      649     2400     2366     2370     2376     2376
        1        1        1        1        0        0        0        0       20        0      452      631      636      632      632      645      650      646      646
     2365     2369      632     2363     2401     2405      646     2399     2366     2380     2370     2370
        1        1        1        1        0        0        0        0       20        0      453      636      637      638      638      650      651      652      652
     2377     2381      638     2378     2413     2417      652     2414     2380     2383     2385     2385
        1        1        1        1        0        0        0        0       20        0      454      645      646      649      649      659      660      663      663
     2399     2404      649     2400     2435     2440      663     2436     2402     2406     2412     2412
        1        1        1        1        0        0        0        0       20        0      455      645      650      646      646      659      664      660      660
     2401     2405      646     2399     2437     2441      660     2435     2402     2416     2406     2406
        1        1        1        1        0        0        0        0       20        0      456      650      651      652      652      664      665      666      666
     2413     2417      652     2414     2449     2453      666     2450     2416     2419     2421     2421
        1        1        1        1        0        0        0        0       20        0      457      659      660      663      663      673      674      677      677
     2435     2440      663     2436     2471     2476      677     2472     2438     2442     2448     2448
        1        1        1        1        0        0        0        0       20        0      458      659      664      660      660      673      678      674      674
     2437     2441      660     2435     2473     2477      674     2471     2438     2452     2442     2442
        1        1        1        1        0        0        0        0       20        0      459      664      665      666      666      678      679      680      680
     2449     2453      666     2450     2485     2489      680     2486     2452     2455     2457     2457
        1        1        1        1        0        0        0        0       20        0      460      673      674      677      677      687      688      691      691
     2471     2476      677     2472     2507     2512      691     2508     2474     2478     2484     2484
        1        1        1        1        0        0        0        0       20        0      461      673      678      674      674      687      692      688      688
     2473     2477      674     2471     2509     2513      688     2507     2474     2488     2478     2478
        1        1        1        1        0        0        0        0       20        0      462      678      679      680      680      692      693      694      694
     2485     2489      680     2486     2521     2525      694     2522     2488     2491     2493     2493
        1        1        1        1        0        0        0        0       20        0      463      687      688      691      691      701      702      705      705
     2507     2512      691     2508     2543     2548      705     2544     2510     2514     2520     2520
        1        1        1        1        0        0        0        0       20        0      464      687      692      688      688      701      706      702      702
     2509     2513      688     2507     2545     2549      702     2543     2510     2524     2514     2514
        1        1        1        1        0        0        0        0       20        0      465      692      693      694      694      706      707      708      708
     2521     2525      694     2522     2557     2561      708     2558     2524     2527     2529     2529
        1        1        1        1        0        0        0        0       20        0      466      701      702      705      705      721      715      726      726
     2543     2548      705     2544     2580     2582      726     2595     2546     2550     2556     2556
        1        1        1        1        0        0        0        0       20        0      467      701      706      702      702      721      720      715      715
     2545     2549      702     2543     2593     2579      715     2580     2546     2560     2550     2550
        1        1        1        1        0        0        0        0       20        0      468      706      707      708      708      720      716      723      723
     2557     2561      708     2558     2584     2585      723     2594     2560     2563     2565     2565
-1
